     Program PWSCF v.6.7MaX starts on 10Nov2022 at 11:52:18

     Waiting for input...
     Reading input from standard input

     Current dimensions of program PWSCF are:
     Max number of different atomic species (ntypx) = 10
     Max number of k-points (npk) =  40000
     Max angular momentum in pseudopotentials (lmaxx) =  3
     file Ga.pbe-dn-kjpaw_psl.1.0.0.UPF: wavefunction(s)  4S renormalized
     file N.pbe-n-kjpaw_psl.1.0.0.UPF: wavefunction(s)  2S renormalized

     Subspace diagonalization in iterative solution of the eigenvalue problem:
     a serial algorithm will be used

     bravais-lattice index     =            4
     lattice parameter (alat)  =       6.0760  a.u.
     unit-cell volume          =     316.5321 (a.u.)^3
     number of atoms/cell      =            4
     number of atomic types    =            2
     number of electrons       =        36.00
     number of Kohn-Sham states=           20
     kinetic-energy cutoff     =      50.0000  Ry
     charge density cutoff     =     400.0000  Ry
     scf convergence threshold =      1.0E-06
     mixing beta               =       0.7000
     number of iterations used =            8  plain     mixing
     Exchange-correlation= SLA  PW   PBX  PBC
                           (   1   4   3   4   0   0   0)

     celldm(1)=   6.076036  celldm(2)=   0.000000  celldm(3)=   1.629394
     celldm(4)=   0.000000  celldm(5)=   0.000000  celldm(6)=   0.000000

     crystal axes: (cart. coord. in units of alat)
               a(1) = (   1.000000   0.000000   0.000000 )
               a(2) = (  -0.500000   0.866025   0.000000 )
               a(3) = (   0.000000   0.000000   1.629394 )

     reciprocal axes: (cart. coord. in units 2 pi/alat)
               b(1) = (  1.000000  0.577350 -0.000000 )
               b(2) = (  0.000000  1.154701  0.000000 )
               b(3) = (  0.000000 -0.000000  0.613725 )

     PseudoPot. # 1 for Ga read from file:
     ./PP/Ga.pbe-dn-kjpaw_psl.1.0.0.UPF
     MD5 check sum: 50ce49cbf7e0a40ad8623bf41840a268
     Pseudo is Projector augmented-wave + core cor, Zval = 13.0
     Generated using &quot;atomic&quot; code by A. Dal Corso  v.6.3
     Shape of augmentation charge: PSQ
     Using radial grid of 1205 points,  6 beta functions with:
                l(1) =   0
                l(2) =   0
                l(3) =   1
                l(4) =   1
                l(5) =   2
                l(6) =   2
     Q(r) pseudized with 0 coefficients

     PseudoPot. # 2 for N  read from file:
     ./PP/N.pbe-n-kjpaw_psl.1.0.0.UPF
     MD5 check sum: 14c48229446f9f2d411169a3abcbc3fa
     Pseudo is Projector augmented-wave + core cor, Zval =  5.0
     Generated using &quot;atomic&quot; code by A. Dal Corso  v.6.3
     Shape of augmentation charge: PSQ
     Using radial grid of 1085 points,  4 beta functions with:
                l(1) =   0
                l(2) =   0
                l(3) =   1
                l(4) =   1
     Q(r) pseudized with 0 coefficients

     atomic species   valence    mass     pseudopotential
        Ga            13.00    69.72300     Ga( 1.00)
        N              5.00    14.00650     N ( 1.00)

      2 Sym. Ops. (no inversion) found

   Cartesian axes

     site n.     atom                  positions (alat units)
         1           Ga  tau(   1) = (   0.5000021   0.2886739   0.0000000  )
         2           Ga  tau(   2) = (  -0.0000021   0.5773515   0.8147393  )
         3           N   tau(   3) = (   0.5000388   0.2886527   0.6137848  )
         4           N   tau(   4) = (  -0.0000388   0.5773727   1.4284903  )

     number of k points=     7
                       cart. coord. in units 2pi/alat
        k(    1) = (   0.2500000   0.4330127   0.1534313), wk =   0.3333333
        k(    2) = (   0.2500000  -0.1443376   0.1534313), wk =   0.1666667
        k(    3) = (  -0.2500000   0.4330127  -0.1534313), wk =   0.3333333
        k(    4) = (   0.2500000  -0.4330127  -0.1534313), wk =   0.3333333
        k(    5) = (  -0.2500000  -0.1443376  -0.1534313), wk =   0.3333333
        k(    6) = (   0.2500000   0.1443376  -0.1534313), wk =   0.3333333
        k(    7) = (   0.2500000  -0.1443376  -0.1534313), wk =   0.1666667

     Check: negative core charge=   -0.000001

     Initial potential from superposition of free atoms

     starting charge   35.99408, renormalised to   36.00000
     Starting wfcs are   26 randomized atomic wfcs
     Checking if some PAW data can be deallocated...

     Self-consistent Calculation

     iteration #  1     ecut=    50.00 Ry     beta= 0.70
     Davidson diagonalization with overlap
     ethr =  1.00E-02,  avg # of iterations =  2.0

     total energy              =    -611.70547437 Ry
     estimated scf accuracy    <       1.09369549 Ry

[...]

     total energy              =    -612.45360152 Ry
     estimated scf accuracy    <       0.00000239 Ry

     iteration # 16     ecut=    50.00 Ry     beta= 0.70
     Davidson diagonalization with overlap
     ethr =  4.83E-09,  avg # of iterations =  1.0

     End of self-consistent calculation

          k = 0.2500 0.4330 0.1534 (  1887 PWs)   bands (ev):

    -5.5864  -5.4909  -4.0467  -3.9927  -3.9471  -3.9199  -3.8729  -3.8586
    -3.8048  -3.7934  -2.7337  -2.0674   3.3871   3.9961   5.4443   6.3086
     6.8679   7.8924  15.2138  15.3230

[...]

          k =-0.2500 0.4330-0.1534 (  1887 PWs)   bands (ev):

[...]

          k =-0.2500-0.1443-0.1534 (  1890 PWs)   bands (ev):

[...]

          k = 0.2500-0.1443-0.1534 (  1890 PWs)   bands (ev):

    -5.8981  -5.5654  -4.0560  -4.0290  -4.0026  -3.9614  -3.8957  -3.8694
    -3.8368  -3.7756  -3.6593  -2.6118   3.7620   5.6331   6.1490   7.5607
     8.4093   8.5701  13.5650  15.1939

     highest occupied, lowest unoccupied level (ev):     8.5704   13.5647

!    total energy              =    -612.45360151 Ry

     total all-electron energy =     -7995.380519 Ry
     estimated scf accuracy    <       0.00000025 Ry

     The total energy is the sum of the following terms:
     one-electron contribution =    -184.15378229 Ry
     hartree contribution      =     130.95701151 Ry
     xc contribution           =     -88.35550092 Ry
     ewald contribution        =    -231.20947574 Ry
     one-center paw contrib.   =    -239.69185408 Ry

     convergence has been achieved in  16 iterations

     Writing output data file out_gan/gan.save/

     General routines

     Parallel routines

   This run was terminated on:  11:52:32  10Nov2022

   JOB DONE.