     Program PWSCF v.6.4.1 starts on  3May2022 at 16:10: 6

     Waiting for input...
     Reading input from standard input

     Current dimensions of program PWSCF are:
     Max number of different atomic species (ntypx) = 10
     Max number of k-points (npk) =  40000
     Max angular momentum in pseudopotentials (lmaxx) =  3

     IMPORTANT: XC functional enforced from input :
     Exchange-correlation      = HSE ( 1  4 12  4 0 0)
     EXX-fraction              =        0.25
     Any further DFT definition will be discarded
     Please, verify this is what you really want

               file Ga.pbe-dn-kjpaw_psl.1.0.0.UPF: wavefunction(s)  4S renormalized
               file N.pbe-n-kjpaw_psl.1.0.0.UPF: wavefunction(s)  2S renormalized
     Message from routine setup :
     BEWARE: nonlinear core correction is not consistent with hybrid XC

     Subspace diagonalization in iterative solution of the eigenvalue problem:
     a serial algorithm will be used

     Message from routine setup:
     DEPRECATED: symmetry with ibrav=0, use correct ibrav instead
     EXX: setup a grid of 80 q-points centered on each k-point
     (k+q)-points:
   0.1082532   0.0625000   0.0384226         1    1
   0.1082532   0.0625000   0.1152679         2    1
   0.1082532   0.0625000   0.1921131         3    1
   0.1082532   0.0625000   0.2689584         4    1
   0.1804220   0.1875000   0.0384226         5    1
   0.1804220   0.1875000   0.1152679         6    1
   0.1804220   0.1875000   0.1921131         7    1
   0.1804220   0.1875000   0.2689584         8    1
   0.2525907   0.3125000   0.0384226         9    1
   0.2525907   0.3125000   0.1152679        10    1
   0.2525907   0.3125000   0.1921131        11    1
   0.2525907   0.3125000   0.2689584        12    1
   0.3247595   0.4375000   0.0384226        13    1
   0.3247595   0.4375000   0.1152679        14    1
   0.3247595   0.4375000   0.1921131        15    1
   0.3247595   0.4375000   0.2689584        16    1
  -0.1804220  -0.4375000   0.0384226        17    1
  -0.1804220  -0.4375000   0.1152679        18    1
  -0.1804220  -0.4375000   0.1921131        19    1
  -0.1804220  -0.4375000   0.2689584        20    1
  -0.1082532  -0.3125000   0.0384226        21    1
  -0.1082532  -0.3125000   0.1152679        22    1
  -0.1082532  -0.3125000   0.1921131        23    1
  -0.1082532  -0.3125000   0.2689584        24    1
  -0.0360844  -0.1875000   0.0384226        25    1
  -0.0360844  -0.1875000   0.1152679        26    1
  -0.0360844  -0.1875000   0.1921131        27    1
  -0.0360844  -0.1875000   0.2689584        28    1
   0.0360844  -0.0625000   0.0384226        29    1
   0.0360844  -0.0625000   0.1152679        30    1
   0.0360844  -0.0625000   0.1921131        31    1
   0.0360844  -0.0625000   0.2689584        32    1
   0.3247595   0.1875000   0.0384226        33    1
   0.3247595   0.1875000   0.1152679        34    1
   0.3247595   0.1875000   0.1921131        35    1
   0.3247595   0.1875000   0.2689584        36    1
   0.3969283   0.3125000   0.0384226        37    1
   0.3969283   0.3125000   0.1152679        38    1
   0.3969283   0.3125000   0.1921131        39    1
   0.3969283   0.3125000   0.2689584        40    1
   0.4690971   0.4375000   0.0384226        41    1
   0.4690971   0.4375000   0.1152679        42    1
   0.4690971   0.4375000   0.1921131        43    1
   0.4690971   0.4375000   0.2689584        44    1
  -0.0360844  -0.4375000   0.0384226        45    1
  -0.0360844  -0.4375000   0.1152679        46    1
  -0.0360844  -0.4375000   0.1921131        47    1
  -0.0360844  -0.4375000   0.2689584        48    1
   0.0360844  -0.3125000   0.0384226        49    1
   0.0360844  -0.3125000   0.1152679        50    1
   0.0360844  -0.3125000   0.1921131        51    1
   0.0360844  -0.3125000   0.2689584        52    1
   0.1082532  -0.1875000   0.0384226        53    1
   0.1082532  -0.1875000   0.1152679        54    1
   0.1082532  -0.1875000   0.1921131        55    1
   0.1082532  -0.1875000   0.2689584        56    1
   0.5412659   0.3125000   0.0384226        57    1
   0.5412659   0.3125000   0.1152679        58    1
   0.5412659   0.3125000   0.1921131        59    1
   0.5412659   0.3125000   0.2689584        60    1
[...]
   0.1082532  -0.4375000   0.1152679        66    1
   0.1082532  -0.4375000   0.1921131        67    1
   0.1082532  -0.4375000   0.2689584        68    1
   0.1804220  -0.3125000   0.0384226        69    1
   0.1804220  -0.3125000   0.1152679        70    1
   0.1804220  -0.3125000   0.1921131        71    1
   0.1804220  -0.3125000   0.2689584        72    1
   0.7577722   0.4375000   0.0384226        73    1
   0.7577722   0.4375000   0.1152679        74    1
   0.7577722   0.4375000   0.1921131        75    1
   0.7577722   0.4375000   0.2689584        76    1
   0.2525907  -0.4375000   0.0384226        77    1
   0.2525907  -0.4375000   0.1152679        78    1
   0.2525907  -0.4375000   0.1921131        79    1
   0.2525907  -0.4375000   0.2689584        80    1

     bravais-lattice index     =            0
     lattice parameter (alat)  =       6.0282  a.u.
     unit-cell volume          =     308.5974 (a.u.)^3
     number of atoms/cell      =            4
     number of atomic types    =            2
     number of electrons       =        36.00
     number of Kohn-Sham states=           20
     kinetic-energy cutoff     =      80.0000  Ry
     charge density cutoff     =     960.0000  Ry
     cutoff for Fock operator  =     320.0000  Ry
     convergence threshold     =      1.0E-06
     mixing beta               =       0.7000
     number of iterations used =            8  plain     mixing
     Exchange-correlation      = HSE ( 1  4 12  4 0 0)
     EXX-fraction              =        0.25

     celldm(1)=   6.028226  celldm(2)=   0.000000  celldm(3)=   0.000000
     celldm(4)=   0.000000  celldm(5)=   0.000000  celldm(6)=   0.000000

     crystal axes: (cart. coord. in units of alat)
               a(1) = (   0.866025  -0.500000   0.000000 )
               a(2) = (   0.000000   1.000000   0.000000 )
               a(3) = (   0.000000   0.000000   1.626646 )

     reciprocal axes: (cart. coord. in units 2 pi/alat)
               b(1) = (  1.154701  0.000000  0.000000 )
               b(2) = (  0.577350  1.000000 -0.000000 )
               b(3) = ( -0.000000  0.000000  0.614762 )

     PseudoPot. # 1 for Ga read from file:
     ./Ga.pbe-dn-kjpaw_psl.1.0.0.UPF
     MD5 check sum: 50ce49cbf7e0a40ad8623bf41840a268
     Pseudo is Projector augmented-wave + core cor, Zval = 13.0
     Generated using "atomic" code by A. Dal Corso v.6.3
     Shape of augmentation charge: PSQ
     Using radial grid of 1205 points,  6 beta functions with:
                l(1) =   0
                l(2) =   0
                l(3) =   1
                l(4) =   1
                l(5) =   2
                l(6) =   2
     Q(r) pseudized with 0 coefficients

     PseudoPot. # 2 for N  read from file:
     ./N.pbe-n-kjpaw_psl.1.0.0.UPF
     MD5 check sum: 14c48229446f9f2d411169a3abcbc3fa
     Pseudo is Projector augmented-wave + core cor, Zval =  5.0
     Generated using "atomic" code by A. Dal Corso v.6.3
     Shape of augmentation charge: PSQ
     Using radial grid of 1085 points,  4 beta functions with:
                l(1) =   0
                l(2) =   0
                l(3) =   1
                l(4) =   1
     Q(r) pseudized with 0 coefficients

     atomic species   valence    mass     pseudopotential
        Ga            13.00    69.72300     Ga( 1.00)
        N              5.00    14.00650     N ( 1.00)

     12 Sym. Ops. (no inversion) found ( 6 have fractional translation)

   Cartesian axes

     site n.     atom                  positions (alat units)
         1           Ga  tau(   1) = (   0.5773503  -0.0000000   0.0000000  )
         2           Ga  tau(   2) = (   0.2886751   0.5000000   0.8133229  )
         3           N   tau(   3) = (   0.5773503  -0.0000000   0.6099922  )
         4           N   tau(   4) = (   0.2886751   0.5000000   1.4233150  )

     number of k points=    80
                       cart. coord. in units 2pi/alat
        k(    1) = (   0.1082532   0.0625000   0.0384226), wk =   0.0156250
        k(    2) = (   0.1082532   0.0625000   0.1152679), wk =   0.0156250
        k(    3) = (   0.1082532   0.0625000   0.1921131), wk =   0.0156250
        k(    4) = (   0.1082532   0.0625000   0.2689584), wk =   0.0156250
        k(    5) = (   0.1804220   0.1875000   0.0384226), wk =   0.0312500
        k(    6) = (   0.1804220   0.1875000   0.1152679), wk =   0.0312500
        k(    7) = (   0.1804220   0.1875000   0.1921131), wk =   0.0312500
        k(    8) = (   0.1804220   0.1875000   0.2689584), wk =   0.0312500
        k(    9) = (   0.2525907   0.3125000   0.0384226), wk =   0.0312500
        k(   10) = (   0.2525907   0.3125000   0.1152679), wk =   0.0312500
        k(   11) = (   0.2525907   0.3125000   0.1921131), wk =   0.0312500
        k(   12) = (   0.2525907   0.3125000   0.2689584), wk =   0.0312500
        k(   13) = (   0.3247595   0.4375000   0.0384226), wk =   0.0312500
        k(   14) = (   0.3247595   0.4375000   0.1152679), wk =   0.0312500
        k(   15) = (   0.3247595   0.4375000   0.1921131), wk =   0.0312500
        k(   16) = (   0.3247595   0.4375000   0.2689584), wk =   0.0312500
        k(   17) = (  -0.1804220  -0.4375000   0.0384226), wk =   0.0312500
        k(   18) = (  -0.1804220  -0.4375000   0.1152679), wk =   0.0312500
        k(   19) = (  -0.1804220  -0.4375000   0.1921131), wk =   0.0312500
        k(   20) = (  -0.1804220  -0.4375000   0.2689584), wk =   0.0312500
        k(   21) = (  -0.1082532  -0.3125000   0.0384226), wk =   0.0312500
        k(   22) = (  -0.1082532  -0.3125000   0.1152679), wk =   0.0312500
        k(   23) = (  -0.1082532  -0.3125000   0.1921131), wk =   0.0312500
        k(   24) = (  -0.1082532  -0.3125000   0.2689584), wk =   0.0312500
        k(   25) = (  -0.0360844  -0.1875000   0.0384226), wk =   0.0312500
        k(   26) = (  -0.0360844  -0.1875000   0.1152679), wk =   0.0312500
        k(   27) = (  -0.0360844  -0.1875000   0.1921131), wk =   0.0312500
        k(   28) = (  -0.0360844  -0.1875000   0.2689584), wk =   0.0312500
        k(   29) = (   0.0360844  -0.0625000   0.0384226), wk =   0.0156250
        k(   30) = (   0.0360844  -0.0625000   0.1152679), wk =   0.0156250
        k(   31) = (   0.0360844  -0.0625000   0.1921131), wk =   0.0156250
        k(   32) = (   0.0360844  -0.0625000   0.2689584), wk =   0.0156250
        k(   33) = (   0.3247595   0.1875000   0.0384226), wk =   0.0156250
        k(   34) = (   0.3247595   0.1875000   0.1152679), wk =   0.0156250
        k(   35) = (   0.3247595   0.1875000   0.1921131), wk =   0.0156250
        k(   36) = (   0.3247595   0.1875000   0.2689584), wk =   0.0156250
        k(   37) = (   0.3969283   0.3125000   0.0384226), wk =   0.0312500
        k(   38) = (   0.3969283   0.3125000   0.1152679), wk =   0.0312500
        k(   39) = (   0.3969283   0.3125000   0.1921131), wk =   0.0312500
        k(   40) = (   0.3969283   0.3125000   0.2689584), wk =   0.0312500
        k(   41) = (   0.4690971   0.4375000   0.0384226), wk =   0.0312500
        k(   42) = (   0.4690971   0.4375000   0.1152679), wk =   0.0312500
        k(   43) = (   0.4690971   0.4375000   0.1921131), wk =   0.0312500
        k(   44) = (   0.4690971   0.4375000   0.2689584), wk =   0.0312500
        k(   45) = (  -0.0360844  -0.4375000   0.0384226), wk =   0.0312500
        k(   46) = (  -0.0360844  -0.4375000   0.1152679), wk =   0.0312500
        k(   47) = (  -0.0360844  -0.4375000   0.1921131), wk =   0.0312500
        k(   48) = (  -0.0360844  -0.4375000   0.2689584), wk =   0.0312500
        k(   49) = (   0.0360844  -0.3125000   0.0384226), wk =   0.0312500
        k(   50) = (   0.0360844  -0.3125000   0.1152679), wk =   0.0312500
        k(   51) = (   0.0360844  -0.3125000   0.1921131), wk =   0.0312500
        k(   52) = (   0.0360844  -0.3125000   0.2689584), wk =   0.0312500
        k(   53) = (   0.1082532  -0.1875000   0.0384226), wk =   0.0156250
        k(   54) = (   0.1082532  -0.1875000   0.1152679), wk =   0.0156250
        k(   55) = (   0.1082532  -0.1875000   0.1921131), wk =   0.0156250
        k(   56) = (   0.1082532  -0.1875000   0.2689584), wk =   0.0156250
        k(   57) = (   0.5412659   0.3125000   0.0384226), wk =   0.0156250
        k(   58) = (   0.5412659   0.3125000   0.1152679), wk =   0.0156250
        k(   59) = (   0.5412659   0.3125000   0.1921131), wk =   0.0156250
        k(   60) = (   0.5412659   0.3125000   0.2689584), wk =   0.0156250
[...]
        k(   66) = (   0.1082532  -0.4375000   0.1152679), wk =   0.0312500
        k(   67) = (   0.1082532  -0.4375000   0.1921131), wk =   0.0312500
        k(   68) = (   0.1082532  -0.4375000   0.2689584), wk =   0.0312500
        k(   69) = (   0.1804220  -0.3125000   0.0384226), wk =   0.0156250
        k(   70) = (   0.1804220  -0.3125000   0.1152679), wk =   0.0156250
        k(   71) = (   0.1804220  -0.3125000   0.1921131), wk =   0.0156250
        k(   72) = (   0.1804220  -0.3125000   0.2689584), wk =   0.0156250
        k(   73) = (   0.7577722   0.4375000   0.0384226), wk =   0.0156250
        k(   74) = (   0.7577722   0.4375000   0.1152679), wk =   0.0156250
        k(   75) = (   0.7577722   0.4375000   0.1921131), wk =   0.0156250
        k(   76) = (   0.7577722   0.4375000   0.2689584), wk =   0.0156250
        k(   77) = (   0.2525907  -0.4375000   0.0384226), wk =   0.0156250
        k(   78) = (   0.2525907  -0.4375000   0.1152679), wk =   0.0156250
        k(   79) = (   0.2525907  -0.4375000   0.1921131), wk =   0.0156250
        k(   80) = (   0.2525907  -0.4375000   0.2689584), wk =   0.0156250

     Initial potential from superposition of free atoms

     starting charge   35.99408, renormalised to   36.00000
     Starting wfcs are   26 randomized atomic wfcs

     Self-consistent Calculation

     iteration #  1     ecut=    80.00 Ry     beta= 0.70
     Davidson diagonalization with overlap
     ethr =  1.00E-02,  avg # of iterations =  2.6

     total energy              =    -611.65064197 Ry
     Harris-Foulkes estimate   =    -612.50087859 Ry
     estimated scf accuracy    <       1.13987981 Ry

[...]

     End of self-consistent calculation

          k = 0.1083 0.0625 0.0384 (  3752 PWs)   bands (ev):

    -6.1479  -5.3436  -3.7653  -3.7445  -3.7237  -3.6883  -3.6755  -3.5206
    -3.5136  -3.4345  -3.4130  -2.1221   2.8651   7.8942   8.3363   8.7805
     9.5070   9.5728  12.5544  14.6675

[...]

          k =-0.1804-0.4375 0.0384 (  3709 PWs)   bands (ev):

[...]

     highest occupied, lowest unoccupied level (ev):     9.6651   12.0838

!    total energy              =    -612.42952822 Ry
     Harris-Foulkes estimate   =    -612.42952841 Ry
     estimated scf accuracy    <       0.00000063 Ry

     convergence has been achieved in  37 iterations

     Using ACE for calculation of exact exchange

     EXX: now go back to refine exchange calculation

[...]

     total energy              =    -543.06656043 Ry
     Harris-Foulkes estimate   =    -543.06656047 Ry
     est. exchange err (dexx)  =       0.00291748 Ry
     - averaged Fock potential =      18.25395312 Ry
     + Fock energy (ACE)       =      -9.08801543 Ry

[...]

     total energy              =    -543.06683703 Ry
     Harris-Foulkes estimate   =    -543.06683886 Ry
     estimated scf accuracy    <       0.00000286 Ry

[...]

     total energy              =    -543.06683892 Ry
     Harris-Foulkes estimate   =    -543.06683928 Ry
     est. exchange err (dexx)  =       0.00000125 Ry
     - averaged Fock potential =      18.16698694 Ry
     + Fock energy (ACE)       =      -9.08344329 Ry

     EXX: now go back to refine exchange calculation

     Self-consistent Calculation

     iteration #  1     ecut=    80.00 Ry     beta= 0.70
     Davidson diagonalization with overlap
     ethr =  7.96E-09,  avg # of iterations =  3.5

     End of self-consistent calculation

[...]

          k =-0.0361-0.4375 0.2690 (  3730 PWs)   bands (ev):

[...]

          k = 0.2526-0.4375 0.2690 (  3732 PWs)   bands (ev):

    -6.9364  -6.8667  -4.6027  -4.5753  -4.5321  -4.4842  -4.3481  -4.3102
    -4.2783  -4.2698  -3.2899  -3.1323   2.1484   2.4756   6.3607   6.5863
     6.7262   7.1484  14.9665  15.4458

     highest occupied, lowest unoccupied level (ev):     8.7784   13.1379

!    total energy              =    -543.06683921 Ry
     Harris-Foulkes estimate   =    -543.06683970 Ry
     estimated scf accuracy    <       0.00000070 Ry

     convergence has been achieved in   1 iterations

     Using ACE for calculation of exact exchange

!!   total energy              =    -543.06683937 Ry
     Harris-Foulkes estimate   =    -543.06683986 Ry
     est. exchange err (dexx)  =       0.00000015 Ry
     - averaged Fock potential =      18.16650265 Ry
     + Fock energy (ACE)       =      -9.08305951 Ry

     EXX self-consistency reached

     Writing output data file qa.save/

     General routines

     Parallel routines

     EXX routines

     EXX+US  routines

     EXX+PAW routines

   This run was terminated on:  21:32:59   3May2022

   JOB DONE.