     Program PWSCF v.7.1 starts on 15Jan2023 at 16:34:33

     Waiting for input...
     Reading input from standard input

     Current dimensions of program PWSCF are:
     Max number of different atomic species (ntypx) = 10
     Max number of k-points (npk) =  40000
     Max angular momentum in pseudopotentials (lmaxx) =  4
     file Si.pbe-n-kjpaw_psl.1.0.0.UPF: wavefunction(s)  3S 3P renormalized
     file O.pbe-n-kjpaw_psl.1.0.0.UPF: wavefunction(s)  2S 2P renormalized
     file Hf.pbe-spdfn-kjpaw_psl.1.0.0.UPF: wavefunction(s)  5P 4F renormalized
     Found identity + (  0.5000  0.5000  0.5000) symmetry
     This is a supercell, fractional translations are disabled
     Message from routine setup:
     using ibrav=0 with symmetry is DISCOURAGED, use correct ibrav instead

     Subspace diagonalization in iterative solution of the eigenvalue problem:
     a serial algorithm will be used

     Using Slab Decomposition

     Title:
     HfSiO4_SCF

     bravais-lattice index     =            0
     lattice parameter (alat)  =      12.3841  a.u.
     unit-cell volume          =    1728.6376 (a.u.)^3
     number of atoms/cell      =           24
     number of atomic types    =            3
     number of electrons       =       256.00
     number of Kohn-Sham states=          128
     kinetic-energy cutoff     =     100.0000  Ry
     charge density cutoff     =     800.0000  Ry
     scf convergence threshold =      1.0E-06
     mixing beta               =       0.7000
     number of iterations used =            8  plain     mixing
     Exchange-correlation= SLA  PW   PBX  PBC
                           (   1   4   3   4   0   0   0)

     celldm(1)=  12.384137  celldm(2)=   0.000000  celldm(3)=   0.000000
     celldm(4)=   0.000000  celldm(5)=   0.000000  celldm(6)=   0.000000

     crystal axes: (cart. coord. in units of alat)
               a(1) = (   1.000000   0.000000   0.000000 )
               a(2) = (   0.000000   1.000000   0.000000 )
               a(3) = (   0.000000   0.000000   0.910137 )

     reciprocal axes: (cart. coord. in units 2 pi/alat)
               b(1) = (  1.000000  0.000000  0.000000 )
               b(2) = (  0.000000  1.000000  0.000000 )
               b(3) = (  0.000000  0.000000  1.098736 )

     PseudoPot. # 1 for Si read from file:
     /home/shigeki/.burai/.pseudopot/Si.pbe-n-kjpaw_psl.1.0.0.UPF
     MD5 check sum: 9aa59a521a94d8167cd5008988816ac3
     Pseudo is Projector augmented-wave + core cor, Zval =  4.0
     Generated using "atomic" code by A. Dal Corso  v.5.1.2
     Shape of augmentation charge: PSQ
     Using radial grid of 1141 points,  6 beta functions with:
                l(1) =   0
                l(2) =   0
                l(3) =   1
                l(4) =   1
                l(5) =   2
                l(6) =   2
     Q(r) pseudized with 0 coefficients

     PseudoPot. # 2 for O  read from file:
     /home/shigeki/.burai/.pseudopot/O.pbe-n-kjpaw_psl.1.0.0.UPF
     MD5 check sum: 2dcd67f835f9a12042f32bdaf0e8bcf6
     Pseudo is Projector augmented-wave + core cor, Zval =  6.0
     Generated using "atomic" code by A. Dal Corso  v.5.1.2
     Shape of augmentation charge: PSQ
     Using radial grid of 1095 points,  4 beta functions with:
                l(1) =   0
                l(2) =   0
                l(3) =   1
                l(4) =   1
     Q(r) pseudized with 0 coefficients

     PseudoPot. # 3 for Hf read from file:
     /home/shigeki/.burai/.pseudopot/Hf.pbe-spdfn-kjpaw_psl.1.0.0.UPF
     MD5 check sum: 054ab3954715fe03e42536d2af1a941a
     Pseudo is Projector augmented-wave + core cor, Zval = 36.0
     Generated using "atomic" code by A. Dal Corso  v.5.1.2
     Shape of augmentation charge: PSQ
     Using radial grid of 1271 points,  8 beta functions with:
                l(1) =   0
                l(2) =   0
                l(3) =   1
                l(4) =   1
                l(5) =   2
                l(6) =   2
                l(7) =   3
                l(8) =   3
     Q(r) pseudized with 0 coefficients

     atomic species   valence    mass     pseudopotential
        Si             4.00    28.08500     Si( 1.00)
        O              6.00    15.99900     O ( 1.00)
        Hf            36.00   178.49000     Hf( 1.00)

      8 Sym. Ops. (no inversion) found

                                    s                        frac. trans.

      isym =  1     identity

 cryst.   s( 1) = (     1          0          0      )
                  (     0          1          0      )
                  (     0          0          1      )

 cart.    s( 1) = (  1.0000000  0.0000000  0.0000000 )
                  (  0.0000000  1.0000000  0.0000000 )
                  (  0.0000000  0.0000000  1.0000000 )

      isym =  2     180 deg rotation - cart. axis [0,0,1]

[...]

      isym =  4     180 deg rotation - cart. axis [1,-1,0]

[...]

      isym =  5     inv. 180 deg rotation - cart. axis [0,1,0]

[...]

      isym =  8     inv.  90 deg rotation - cart. axis [0,0,1]

 cryst.   s( 8) = (     0         -1          0      )
                  (     1          0          0      )
                  (     0          0         -1      )

 cart.    s( 8) = (  0.0000000  1.0000000  0.0000000 )
                  ( -1.0000000  0.0000000  0.0000000 )
                  (  0.0000000  0.0000000 -1.0000000 )

   Cartesian axes

     site n.     atom                  positions (alat units)
         1           Hf  tau(   1) = (   0.5000000   0.5000000   0.4550685  )
         2           Hf  tau(   2) = (   0.0000000   0.5000000   0.6826027  )
         3           Hf  tau(   3) = (   0.0000000   0.0000000   0.0000000  )
         4           Hf  tau(   4) = (   0.5000000   0.0000000   0.2275342  )
         5           Si  tau(   5) = (   0.5000000   0.0000000   0.6826027  )
         6           Si  tau(   6) = (   0.0000000   0.0000000   0.4550685  )
         7           Si  tau(   7) = (   0.0000000   0.5000000   0.2275342  )
         8           Si  tau(   8) = (   0.5000000   0.5000000   0.0000000  )
         9           O   tau(   9) = (   0.8148870   0.0000000   0.2905166  )
        10           O   tau(  10) = (   0.5000000   0.1851130   0.5180508  )
        11           O   tau(  11) = (   0.5000000   0.8148870   0.5180508  )
        12           O   tau(  12) = (   0.1851130   0.0000000   0.2905166  )
        13           O   tau(  13) = (   0.0000000   0.8148870   0.6196203  )
        14           O   tau(  14) = (   0.6851130   0.0000000   0.8471545  )
        15           O   tau(  15) = (   0.3148870   0.0000000   0.8471545  )
        16           O   tau(  16) = (   0.0000000   0.1851130   0.6196203  )
        17           O   tau(  17) = (   0.3148870   0.5000000   0.7455851  )
        18           O   tau(  18) = (   0.0000000   0.6851130   0.0629824  )
        19           O   tau(  19) = (   0.0000000   0.3148870   0.0629824  )
        20           O   tau(  20) = (   0.6851130   0.5000000   0.7455851  )
        21           O   tau(  21) = (   0.5000000   0.3148870   0.1645518  )
        22           O   tau(  22) = (   0.1851130   0.5000000   0.3920861  )
        23           O   tau(  23) = (   0.8148870   0.5000000   0.3920861  )
        24           O   tau(  24) = (   0.5000000   0.6851130   0.1645518  )

   Crystallographic axes

     site n.     atom                  positions (cryst. coord.)
         1           Hf  tau(   1) = (  0.5000000  0.5000000  0.5000000  )
         2           Hf  tau(   2) = (  0.0000000  0.5000000  0.7500000  )
         3           Hf  tau(   3) = (  0.0000000  0.0000000  0.0000000  )
         4           Hf  tau(   4) = (  0.5000000  0.0000000  0.2500000  )
         5           Si  tau(   5) = (  0.5000000  0.0000000  0.7500000  )
         6           Si  tau(   6) = (  0.0000000  0.0000000  0.5000000  )
         7           Si  tau(   7) = (  0.0000000  0.5000000  0.2500000  )
         8           Si  tau(   8) = (  0.5000000  0.5000000  0.0000000  )
         9           O   tau(   9) = (  0.8148870  0.0000000  0.3192010  )
        10           O   tau(  10) = (  0.5000000  0.1851130  0.5692010  )
        11           O   tau(  11) = (  0.5000000  0.8148870  0.5692010  )
        12           O   tau(  12) = (  0.1851130  0.0000000  0.3192010  )
        13           O   tau(  13) = (  0.0000000  0.8148870  0.6807990  )
        14           O   tau(  14) = (  0.6851130  0.0000000  0.9307990  )
        15           O   tau(  15) = (  0.3148870  0.0000000  0.9307990  )
        16           O   tau(  16) = (  0.0000000  0.1851130  0.6807990  )
        17           O   tau(  17) = (  0.3148870  0.5000000  0.8192010  )
        18           O   tau(  18) = (  0.0000000  0.6851130  0.0692010  )
        19           O   tau(  19) = (  0.0000000  0.3148870  0.0692010  )
        20           O   tau(  20) = (  0.6851130  0.5000000  0.8192010  )
        21           O   tau(  21) = (  0.5000000  0.3148870  0.1807990  )
        22           O   tau(  22) = (  0.1851130  0.5000000  0.4307990  )
        23           O   tau(  23) = (  0.8148870  0.5000000  0.4307990  )
        24           O   tau(  24) = (  0.5000000  0.6851130  0.1807990  )

     number of k points=     1
                       cart. coord. in units 2pi/alat
        k(    1) = (   0.2500000   0.2500000   0.2746839), wk =   2.0000000

                       cryst. coord.
        k(    1) = (   0.2500000   0.2500000   0.2500000), wk =   2.0000000

     Initial potential from superposition of free atoms

     starting charge     255.9900, renormalised to     256.0000
     Starting wfcs are  168 randomized atomic wfcs
     Checking if some PAW data can be deallocated...

     Self-consistent Calculation

     iteration #  1     ecut=   100.00 Ry     beta= 0.70
     Davidson diagonalization with overlap

     ethr =  1.00E-02,  avg # of iterations =  2.0

     total energy              =   -8889.18808950 Ry
     estimated scf accuracy    <       7.75231437 Ry

[...]

     total energy              =   -8893.68017363 Ry
     estimated scf accuracy    <       0.00003604 Ry

     iteration # 19     ecut=   100.00 Ry     beta= 0.70
     Davidson diagonalization with overlap

     ethr =  1.41E-08,  avg # of iterations =  5.0

     End of self-consistent calculation

          k = 0.2500 0.2500 0.2747 ( 29205 PWs)   bands (ev):

  -189.8161-189.8151-189.8141-189.8139-189.8133-189.8128-189.8122-189.8112
  -189.8100-189.8097-189.8059-189.8055-189.8048-189.8047-189.8039-189.8029
  -189.7910-189.7901-189.7886-189.7881 -50.4455 -50.4438 -50.4413 -50.4396
   -19.2718 -19.2715 -19.2560 -19.2392 -19.1993 -19.1836 -19.1611 -19.1445
   -19.0979 -19.0803 -19.0672 -19.0652  -8.9640  -8.6239  -8.5387  -8.3060
    -7.8270  -7.5186  -7.4420  -7.2734  -7.0215  -6.9958  -6.9876  -6.9785
    -6.9588  -6.9433  -6.8982  -6.8840  -0.2272  -0.2234  -0.2134  -0.2119
    -0.2068  -0.2032  -0.2031  -0.2025  -0.2018  -0.2006  -0.1972  -0.1949
    -0.1941  -0.1907  -0.1892  -0.1888  -0.1878  -0.1854  -0.1839  -0.1836
    -0.1829  -0.1764  -0.1757  -0.1749  -0.1741  -0.1702  -0.1693  -0.1650
     2.9177   2.9310   3.5793   4.0128   4.4107   4.4832   4.6209   4.7789
     4.8001   5.1912   5.4436   5.4537   5.9445   5.9722   6.1034   6.1931
     6.2206   6.2729   6.3856   6.3878   6.7442   7.0097   7.0165   7.1475
     7.2039   7.4662   7.6279   7.7922   7.8115   7.8559   7.9168   8.0248
     8.1975   8.2704   8.2950   8.4632   8.6399   8.7133   8.7322   8.9032
     8.9105   9.1898   9.1992   9.2164   9.3024   9.3406   9.3891   9.6677

     occupation numbers
     1.0000   1.0000   1.0000   1.0000   1.0000   1.0000   1.0000   1.0000
     1.0000   1.0000   1.0000   1.0000   1.0000   1.0000   1.0000   1.0000
     1.0000   1.0000   1.0000   1.0000   1.0000   1.0000   1.0000   1.0000
     1.0000   1.0000   1.0000   1.0000   1.0000   1.0000   1.0000   1.0000
     1.0000   1.0000   1.0000   1.0000   1.0000   1.0000   1.0000   1.0000
     1.0000   1.0000   1.0000   1.0000   1.0000   1.0000   1.0000   1.0000
     1.0000   1.0000   1.0000   1.0000   1.0000   1.0000   1.0000   1.0000
     1.0000   1.0000   1.0000   1.0000   1.0000   1.0000   1.0000   1.0000
     1.0000   1.0000   1.0000   1.0000   1.0000   1.0000   1.0000   1.0000
     1.0000   1.0000   1.0000   1.0000   1.0000   1.0000   1.0000   1.0000
     1.0000   1.0000   1.0000   1.0000   1.0000   1.0000   1.0000   1.0000
     1.0000   1.0000   1.0000   1.0000   1.0000   1.0000   1.0000   1.0000
     1.0000   1.0000   1.0000   1.0000   1.0000   1.0000   1.0000   1.0000
     1.0000   1.0000   1.0000   1.0000   1.0000   1.0000   1.0000   1.0000
     1.0000   1.0000   1.0000   1.0000   1.0000   1.0000   1.0000   1.0000
     1.0000   1.0000   1.0000   1.0000   1.0000   1.0000   1.0000   1.0000

     highest occupied level (ev):     9.6677

!    total energy              =   -8893.68018747 Ry
     total all-electron energy =   -125359.060538 Ry
     estimated scf accuracy    <       0.00000050 Ry

     The total energy is the sum of the following terms:
     one-electron contribution =   -6788.65791912 Ry
     hartree contribution      =    3445.77496351 Ry
     xc contribution           =    -585.32833759 Ry
     ewald contribution        =   -2685.09476606 Ry
     one-center paw contrib.   =   -2280.37412821 Ry
      -> PAW hartree energy AE =    5614.18523942 Ry
      -> PAW hartree energy PS =   -5573.90547258 Ry
      -> PAW xc energy AE      =   -2895.31436511 Ry
      -> PAW xc energy PS      =     574.66047006 Ry
      -> total E_H with PAW    =    3486.05473036 Ry
      -> total E_XC with PAW   =   -2905.98223265 Ry

     convergence has been achieved in  19 iterations

     Writing all to output data dir out_qa/qa.save/

     General routines

     Parallel routines

     PAW routines

   This run was terminated on:  17:11:12  15Jan2023

   JOB DONE.