     Program PWSCF v.6.7MaX starts on  3Nov2022 at 19:47:15

     Waiting for input...
     Reading input from standard input

     Current dimensions of program PWSCF are:
     Max number of different atomic species (ntypx) = 10
     Max number of k-points (npk) =  40000
     Max angular momentum in pseudopotentials (lmaxx) =  3

     File ./gan_wz/gan_wz.update deleted, as requested

     File ./gan_wz/gan_wz.bfgs deleted, as requested
     file N.pbe-rrkjus.UPF: wavefunction(s)  2S renormalized

     Subspace diagonalization in iterative solution of the eigenvalue problem:
     a serial algorithm will be used

     bravais-lattice index     =            4
     lattice parameter (alat)  =       6.0282  a.u.
     unit-cell volume          =     308.5974 (a.u.)^3
     number of atoms/cell      =            4
     number of atomic types    =            2
     number of electrons       =        36.00
     number of Kohn-Sham states=           18
     kinetic-energy cutoff     =      60.0000  Ry
     charge density cutoff     =     360.0000  Ry
     scf convergence threshold =      1.0E-14
     mixing beta               =       0.7000
     number of iterations used =            8  plain     mixing
     energy convergence thresh.=      1.0E-05
     force convergence thresh. =      1.0E-04
     Exchange-correlation=  SLA  PW   PBE  PBE
                           (   1   4   3   4   0   0   0)
     nstep                     =          200

     celldm(1)=   6.028226  celldm(2)=   0.000000  celldm(3)=   1.626646
     celldm(4)=   0.000000  celldm(5)=   0.000000  celldm(6)=   0.000000

     crystal axes: (cart. coord. in units of alat)
               a(1) = (   1.000000   0.000000   0.000000 )
               a(2) = (  -0.500000   0.866025   0.000000 )
               a(3) = (   0.000000   0.000000   1.626646 )

     reciprocal axes: (cart. coord. in units 2 pi/alat)
               b(1) = (  1.000000  0.577350 -0.000000 )
               b(2) = (  0.000000  1.154701  0.000000 )
               b(3) = (  0.000000 -0.000000  0.614762 )

     PseudoPot. # 1 for Ga read from file:
     /home/shigeki/.burai/.pseudopot/Ga.pbe-n-van.UPF
     MD5 check sum: c4a2f5e459d74fd8114b062e68c1095a
     Pseudo is Ultrasoft + core correction, Zval = 13.0
     Generated by new atomic code, or converted to UPF format
     Using radial grid of  871 points,  6 beta functions with:
                l(1) =   0
                l(2) =   0
                l(3) =   1
                l(4) =   1
                l(5) =   2
                l(6) =   2
     Q(r) pseudized with  8 coefficients,  rinner =    1.000   1.000   1.000
                                                       1.000   1.000

     PseudoPot. # 2 for N  read from file:
     /home/shigeki/.burai/.pseudopot/N.pbe-rrkjus.UPF
     MD5 check sum: 0c3fbe5807a93f9ba59d5a7019aa238b
     Pseudo is Ultrasoft, Zval =  5.0
     Generated by new atomic code, or converted to UPF format
     Using radial grid of 1257 points,  4 beta functions with:
                l(1) =   0
                l(2) =   0
                l(3) =   1
                l(4) =   1
     Q(r) pseudized with 0 coefficients

     atomic species   valence    mass     pseudopotential
        Ga            13.00    69.72300     Ga( 1.00)
        N              5.00    14.00674     N ( 1.00)

     No symmetry found

                                    s                        frac. trans.

      isym =  1     identity

 cryst.   s( 1) = (     1          0          0      )
                  (     0          1          0      )
                  (     0          0          1      )

 cart.    s( 1) = (  1.0000000  0.0000000  0.0000000 )
                  (  0.0000000  1.0000000  0.0000000 )
                  (  0.0000000  0.0000000  1.0000000 )

     point group C_1 (1)
     there are  1 classes
     the character table:

       E
A      1.00

     the symmetry operations in each class and the name of the first element:

     E        1
          identity

   Cartesian axes

     site n.     atom                  positions (alat units)
         1           Ga  tau(   1) = (   0.5000005   0.2886748   0.0000000  )
         2           Ga  tau(   2) = (  -0.0000005   0.5773506   0.8133229  )
         3           N   tau(   3) = (   0.5000005   0.2886748   0.6099922  )
         4           N   tau(   4) = (  -0.0000005   0.5773506   1.4233150  )

   Crystallographic axes

     site n.     atom                  positions (cryst. coord.)
         1           Ga  tau(   1) = (  0.6666670  0.3333330  0.0000000  )
         2           Ga  tau(   2) = (  0.3333330  0.6666670  0.5000000  )
         3           N   tau(   3) = (  0.6666670  0.3333330  0.3750000  )
         4           N   tau(   4) = (  0.3333330  0.6666670  0.8750000  )

     number of k points=    98
                       cart. coord. in units 2pi/alat
        k(    1) = (   0.0714286   0.1237179   0.0768452), wk =   0.0204082
        k(    2) = (   0.0714286   0.1237179   0.2305357), wk =   0.0204082
        k(    3) = (   0.0714286   0.1237179  -0.2305357), wk =   0.0204082
        k(    4) = (   0.0714286   0.1237179  -0.0768452), wk =   0.0204082
        k(    5) = (   0.0714286   0.2886751   0.0768452), wk =   0.0204082
        k(    6) = (   0.0714286   0.2886751   0.2305357), wk =   0.0204082
        k(    7) = (   0.0714286   0.2886751  -0.2305357), wk =   0.0204082
        k(    8) = (   0.0714286   0.2886751  -0.0768452), wk =   0.0204082
        k(    9) = (   0.0714286   0.4536324   0.0768452), wk =   0.0204082
        k(   10) = (   0.0714286   0.4536324   0.2305357), wk =   0.0204082
        k(   11) = (   0.0714286   0.4536324  -0.2305357), wk =   0.0204082
        k(   12) = (   0.0714286   0.4536324  -0.0768452), wk =   0.0204082
        k(   13) = (   0.0714286  -0.5361110   0.0768452), wk =   0.0204082
        k(   14) = (   0.0714286  -0.5361110   0.2305357), wk =   0.0204082
        k(   15) = (   0.0714286  -0.5361110  -0.2305357), wk =   0.0204082
        k(   16) = (   0.0714286  -0.5361110  -0.0768452), wk =   0.0204082
        k(   17) = (   0.0714286  -0.3711537   0.0768452), wk =   0.0204082
        k(   18) = (   0.0714286  -0.3711537   0.2305357), wk =   0.0204082
        k(   19) = (   0.0714286  -0.3711537  -0.2305357), wk =   0.0204082
        k(   20) = (   0.0714286  -0.3711537  -0.0768452), wk =   0.0204082
        k(   21) = (   0.0714286  -0.2061965   0.0768452), wk =   0.0204082
        k(   22) = (   0.0714286  -0.2061965   0.2305357), wk =   0.0204082
        k(   23) = (   0.0714286  -0.2061965  -0.2305357), wk =   0.0204082
        k(   24) = (   0.0714286  -0.2061965  -0.0768452), wk =   0.0204082
        k(   25) = (   0.0714286  -0.0412393   0.0768452), wk =   0.0204082
        k(   26) = (   0.0714286  -0.0412393   0.2305357), wk =   0.0204082
        k(   27) = (   0.0714286  -0.0412393  -0.2305357), wk =   0.0204082
        k(   28) = (   0.0714286  -0.0412393  -0.0768452), wk =   0.0204082
        k(   29) = (   0.2142857   0.2061965   0.0768452), wk =   0.0204082
        k(   30) = (   0.2142857   0.2061965   0.2305357), wk =   0.0204082
        k(   31) = (   0.2142857   0.2061965  -0.2305357), wk =   0.0204082
        k(   32) = (   0.2142857   0.2061965  -0.0768452), wk =   0.0204082
        k(   33) = (   0.2142857   0.3711537   0.0768452), wk =   0.0204082
        k(   34) = (   0.2142857   0.3711537   0.2305357), wk =   0.0204082
        k(   35) = (   0.2142857   0.3711537  -0.2305357), wk =   0.0204082
        k(   36) = (   0.2142857   0.3711537  -0.0768452), wk =   0.0204082
        k(   37) = (   0.2142857   0.5361110   0.0768452), wk =   0.0204082
        k(   38) = (   0.2142857   0.5361110   0.2305357), wk =   0.0204082
        k(   39) = (   0.2142857   0.5361110  -0.2305357), wk =   0.0204082
        k(   40) = (   0.2142857   0.5361110  -0.0768452), wk =   0.0204082
        k(   41) = (   0.2142857  -0.4536324   0.0768452), wk =   0.0204082
        k(   42) = (   0.2142857  -0.4536324   0.2305357), wk =   0.0204082
        k(   43) = (   0.2142857  -0.4536324  -0.2305357), wk =   0.0204082
        k(   44) = (   0.2142857  -0.4536324  -0.0768452), wk =   0.0204082
        k(   45) = (   0.2142857  -0.2886751   0.0768452), wk =   0.0204082
        k(   46) = (   0.2142857  -0.2886751   0.2305357), wk =   0.0204082
        k(   47) = (   0.2142857  -0.2886751  -0.2305357), wk =   0.0204082
        k(   48) = (   0.2142857  -0.2886751  -0.0768452), wk =   0.0204082
        k(   49) = (   0.2142857  -0.1237179   0.0768452), wk =   0.0204082
        k(   50) = (   0.2142857  -0.1237179   0.2305357), wk =   0.0204082
        k(   51) = (   0.2142857  -0.1237179  -0.2305357), wk =   0.0204082
        k(   52) = (   0.2142857  -0.1237179  -0.0768452), wk =   0.0204082
        k(   53) = (   0.2142857   0.0412393   0.0768452), wk =   0.0204082
        k(   54) = (   0.2142857   0.0412393   0.2305357), wk =   0.0204082
        k(   55) = (   0.2142857   0.0412393  -0.2305357), wk =   0.0204082
        k(   56) = (   0.2142857   0.0412393  -0.0768452), wk =   0.0204082
        k(   57) = (   0.3571429   0.2886751   0.0768452), wk =   0.0204082
        k(   58) = (   0.3571429   0.2886751   0.2305357), wk =   0.0204082
        k(   59) = (   0.3571429   0.2886751  -0.2305357), wk =   0.0204082
        k(   60) = (   0.3571429   0.2886751  -0.0768452), wk =   0.0204082
[...]
        k(   84) = (   0.3571429   0.1237179  -0.0768452), wk =   0.0204082
        k(   85) = (  -0.5000000  -0.2061965   0.0768452), wk =   0.0204082
        k(   86) = (  -0.5000000  -0.2061965   0.2305357), wk =   0.0204082
        k(   87) = (  -0.5000000  -0.2061965  -0.2305357), wk =   0.0204082
        k(   88) = (  -0.5000000  -0.2061965  -0.0768452), wk =   0.0204082
        k(   89) = (  -0.5000000  -0.0412393   0.0768452), wk =   0.0204082
        k(   90) = (  -0.5000000  -0.0412393   0.2305357), wk =   0.0204082
        k(   91) = (  -0.5000000  -0.0412393  -0.2305357), wk =   0.0204082
        k(   92) = (  -0.5000000  -0.0412393  -0.0768452), wk =   0.0204082
        k(   93) = (  -0.5000000   0.1237179   0.0768452), wk =   0.0204082
        k(   94) = (  -0.5000000   0.1237179   0.2305357), wk =   0.0204082
        k(   95) = (  -0.5000000   0.1237179  -0.2305357), wk =   0.0204082
        k(   96) = (  -0.5000000   0.1237179  -0.0768452), wk =   0.0204082
        k(   97) = (  -0.5000000  -0.8660254   0.0768452), wk =   0.0204082
        k(   98) = (  -0.5000000  -0.8660254   0.2305357), wk =   0.0204082

                       cryst. coord.
        k(    1) = (   0.0714286   0.0714286   0.1250000), wk =   0.0204082
        k(    2) = (   0.0714286   0.0714286   0.3750000), wk =   0.0204082
        k(    3) = (   0.0714286   0.0714286  -0.3750000), wk =   0.0204082
        k(    4) = (   0.0714286   0.0714286  -0.1250000), wk =   0.0204082
        k(    5) = (   0.0714286   0.2142857   0.1250000), wk =   0.0204082
        k(    6) = (   0.0714286   0.2142857   0.3750000), wk =   0.0204082
        k(    7) = (   0.0714286   0.2142857  -0.3750000), wk =   0.0204082
        k(    8) = (   0.0714286   0.2142857  -0.1250000), wk =   0.0204082
        k(    9) = (   0.0714286   0.3571429   0.1250000), wk =   0.0204082
        k(   10) = (   0.0714286   0.3571429   0.3750000), wk =   0.0204082
        k(   11) = (   0.0714286   0.3571429  -0.3750000), wk =   0.0204082
        k(   12) = (   0.0714286   0.3571429  -0.1250000), wk =   0.0204082
        k(   13) = (   0.0714286  -0.5000000   0.1250000), wk =   0.0204082
        k(   14) = (   0.0714286  -0.5000000   0.3750000), wk =   0.0204082
        k(   15) = (   0.0714286  -0.5000000  -0.3750000), wk =   0.0204082
        k(   16) = (   0.0714286  -0.5000000  -0.1250000), wk =   0.0204082
        k(   17) = (   0.0714286  -0.3571429   0.1250000), wk =   0.0204082
        k(   18) = (   0.0714286  -0.3571429   0.3750000), wk =   0.0204082
        k(   19) = (   0.0714286  -0.3571429  -0.3750000), wk =   0.0204082
        k(   20) = (   0.0714286  -0.3571429  -0.1250000), wk =   0.0204082
        k(   21) = (   0.0714286  -0.2142857   0.1250000), wk =   0.0204082
        k(   22) = (   0.0714286  -0.2142857   0.3750000), wk =   0.0204082
        k(   23) = (   0.0714286  -0.2142857  -0.3750000), wk =   0.0204082
        k(   24) = (   0.0714286  -0.2142857  -0.1250000), wk =   0.0204082
        k(   25) = (   0.0714286  -0.0714286   0.1250000), wk =   0.0204082
        k(   26) = (   0.0714286  -0.0714286   0.3750000), wk =   0.0204082
        k(   27) = (   0.0714286  -0.0714286  -0.3750000), wk =   0.0204082
        k(   28) = (   0.0714286  -0.0714286  -0.1250000), wk =   0.0204082
        k(   29) = (   0.2142857   0.0714286   0.1250000), wk =   0.0204082
        k(   30) = (   0.2142857   0.0714286   0.3750000), wk =   0.0204082
        k(   31) = (   0.2142857   0.0714286  -0.3750000), wk =   0.0204082
        k(   32) = (   0.2142857   0.0714286  -0.1250000), wk =   0.0204082
        k(   33) = (   0.2142857   0.2142857   0.1250000), wk =   0.0204082
        k(   34) = (   0.2142857   0.2142857   0.3750000), wk =   0.0204082
        k(   35) = (   0.2142857   0.2142857  -0.3750000), wk =   0.0204082
        k(   36) = (   0.2142857   0.2142857  -0.1250000), wk =   0.0204082
        k(   37) = (   0.2142857   0.3571429   0.1250000), wk =   0.0204082
        k(   38) = (   0.2142857   0.3571429   0.3750000), wk =   0.0204082
        k(   39) = (   0.2142857   0.3571429  -0.3750000), wk =   0.0204082
        k(   40) = (   0.2142857   0.3571429  -0.1250000), wk =   0.0204082
        k(   41) = (   0.2142857  -0.5000000   0.1250000), wk =   0.0204082
        k(   42) = (   0.2142857  -0.5000000   0.3750000), wk =   0.0204082
        k(   43) = (   0.2142857  -0.5000000  -0.3750000), wk =   0.0204082
        k(   44) = (   0.2142857  -0.5000000  -0.1250000), wk =   0.0204082
        k(   45) = (   0.2142857  -0.3571429   0.1250000), wk =   0.0204082
        k(   46) = (   0.2142857  -0.3571429   0.3750000), wk =   0.0204082
        k(   47) = (   0.2142857  -0.3571429  -0.3750000), wk =   0.0204082
        k(   48) = (   0.2142857  -0.3571429  -0.1250000), wk =   0.0204082
        k(   49) = (   0.2142857  -0.2142857   0.1250000), wk =   0.0204082
        k(   50) = (   0.2142857  -0.2142857   0.3750000), wk =   0.0204082
        k(   51) = (   0.2142857  -0.2142857  -0.3750000), wk =   0.0204082
        k(   52) = (   0.2142857  -0.2142857  -0.1250000), wk =   0.0204082
        k(   53) = (   0.2142857  -0.0714286   0.1250000), wk =   0.0204082
        k(   54) = (   0.2142857  -0.0714286   0.3750000), wk =   0.0204082
        k(   55) = (   0.2142857  -0.0714286  -0.3750000), wk =   0.0204082
        k(   56) = (   0.2142857  -0.0714286  -0.1250000), wk =   0.0204082
        k(   57) = (   0.3571429   0.0714286   0.1250000), wk =   0.0204082
        k(   58) = (   0.3571429   0.0714286   0.3750000), wk =   0.0204082
        k(   59) = (   0.3571429   0.0714286  -0.3750000), wk =   0.0204082
        k(   60) = (   0.3571429   0.0714286  -0.1250000), wk =   0.0204082
[...]
        k(   84) = (   0.3571429  -0.0714286  -0.1250000), wk =   0.0204082
        k(   85) = (  -0.5000000   0.0714286   0.1250000), wk =   0.0204082
        k(   86) = (  -0.5000000   0.0714286   0.3750000), wk =   0.0204082
        k(   87) = (  -0.5000000   0.0714286  -0.3750000), wk =   0.0204082
        k(   88) = (  -0.5000000   0.0714286  -0.1250000), wk =   0.0204082
        k(   89) = (  -0.5000000   0.2142857   0.1250000), wk =   0.0204082
        k(   90) = (  -0.5000000   0.2142857   0.3750000), wk =   0.0204082
        k(   91) = (  -0.5000000   0.2142857  -0.3750000), wk =   0.0204082
        k(   92) = (  -0.5000000   0.2142857  -0.1250000), wk =   0.0204082
        k(   93) = (  -0.5000000   0.3571429   0.1250000), wk =   0.0204082
        k(   94) = (  -0.5000000   0.3571429   0.3750000), wk =   0.0204082
        k(   95) = (  -0.5000000   0.3571429  -0.3750000), wk =   0.0204082
        k(   96) = (  -0.5000000   0.3571429  -0.1250000), wk =   0.0204082
        k(   97) = (  -0.5000000  -0.5000000   0.1250000), wk =   0.0204082
        k(   98) = (  -0.5000000  -0.5000000   0.3750000), wk =   0.0204082

     Initial potential from superposition of free atoms

     starting charge   35.99427, renormalised to   36.00000
     Starting wfcs are   26 randomized atomic wfcs

     Self-consistent Calculation

     iteration #  1     ecut=    60.00 Ry     beta= 0.70
     Davidson diagonalization with overlap
     ethr =  1.00E-02,  avg # of iterations =  1.0

     total energy              =    -395.21221994 Ry
     estimated scf accuracy    <       1.04198861 Ry

[...]

     End of self-consistent calculation

          k = 0.0714 0.1237 0.0768 (  2423 PWs)   bands (ev):

    -6.0803  -5.3384  -3.7611  -3.7422  -3.7112  -3.6901  -3.6716  -3.5169
    -3.5106  -3.4428  -3.4144  -2.2129   3.0906   7.7052   8.1125   8.5048
     9.3633   9.4505

     occupation numbers
     1.0000   1.0000   1.0000   1.0000   1.0000   1.0000   1.0000   1.0000
     1.0000   1.0000   1.0000   1.0000   1.0000   1.0000   1.0000   1.0000
     1.0000   1.0000

[...]

          k =-0.5000-0.2062 0.0768 (  2409 PWs)   bands (ev):

[...]

     highest occupied level (ev):     9.5793

!    total energy              =    -395.68571924 Ry
     estimated scf accuracy    <          7.2E-16 Ry

     The total energy is the sum of the following terms:
     one-electron contribution =    -187.65890679 Ry
     hartree contribution      =     133.55253260 Ry
     xc contribution           =    -108.40426773 Ry
     ewald contribution        =    -233.17507731 Ry

     convergence has been achieved in  44 iterations

     Forces acting on atoms (cartesian axes, Ry/au):

     atom    1 type  1   force =     0.00000267   -0.00000154   -0.00464322
     atom    2 type  1   force =    -0.00000267    0.00000154   -0.00464325
     atom    3 type  2   force =     0.00001498   -0.00000865    0.00464323
     atom    4 type  2   force =    -0.00001498    0.00000865    0.00464323
     The non-local contrib.  to forces
     atom    1 type  1   force =     0.00022570   -0.00013031   -0.01425349
     atom    2 type  1   force =    -0.00022570    0.00013031   -0.01425350
     atom    3 type  2   force =     0.00023647   -0.00013653    0.01328727
     atom    4 type  2   force =    -0.00023647    0.00013653    0.01328727
     The ionic contribution  to forces
     atom    1 type  1   force =    -0.00003224    0.00001861    0.06477348
     atom    2 type  1   force =     0.00003224   -0.00001861    0.06477348
     atom    3 type  2   force =    -0.00002895    0.00001671   -0.06477348
     atom    4 type  2   force =     0.00002895   -0.00001671   -0.06477348
     The local contribution  to forces
     atom    1 type  1   force =    -0.00018555    0.00010713   -0.05631738
     atom    2 type  1   force =     0.00018555   -0.00010713   -0.05631737
     atom    3 type  2   force =    -0.00019255    0.00011117    0.05611788
     atom    4 type  2   force =     0.00019255   -0.00011117    0.05611788
     The core correction contribution to forces
     atom    1 type  1   force =    -0.00000524    0.00000303    0.00114260
     atom    2 type  1   force =     0.00000524   -0.00000303    0.00114260
     atom    3 type  2   force =     0.00000000    0.00000000    0.00000000
     atom    4 type  2   force =     0.00000000    0.00000000    0.00000000
     The Hubbard contrib.    to forces
     atom    1 type  1   force =     0.00000000    0.00000000    0.00000000
     atom    2 type  1   force =     0.00000000    0.00000000    0.00000000
     atom    3 type  2   force =     0.00000000    0.00000000    0.00000000
     atom    4 type  2   force =     0.00000000    0.00000000    0.00000000
     The SCF correction term to forces
     atom    1 type  1   force =     0.00000000   -0.00000000    0.00000000
     atom    2 type  1   force =     0.00000000   -0.00000000   -0.00000002
     atom    3 type  2   force =     0.00000000   -0.00000000   -0.00000000
     atom    4 type  2   force =    -0.00000000    0.00000000    0.00000000

     Total force =     0.008042     Total SCF correction =     0.000000

     BFGS Geometry Optimization
     Energy error            =      0.0E+00
     Gradient error          =      4.6E-03

     number of scf cycles    =   1
     number of bfgs steps    =   0

     energy   new            =    -395.6857192374 Ry

     new trust radius        =       0.0046432668 bohr
     new conv_thr            =            1.0E-14 Ry

ATOMIC_POSITIONS (crystal)
Ga            0.6666672953        0.3333327045        0.0000000000    1   1   0
Ga            0.3333327047        0.6666672954        0.4995264791
N             0.6666686566        0.3333313434        0.3754735197
N             0.3333313433        0.6666686567        0.8754735197

     Writing output data file ./gan_wz/gan_wz.save/
     NEW-OLD atomic charge density approx. for the potential

[...]

     Threshold (ethr) on eigenvalues was too large:
     Diagonalizing with lowered threshold

     Davidson diagonalization with overlap
     ethr =  1.06E-08,  avg # of iterations =  5.1

[...]

     Total force =     0.004390     Total SCF correction =     0.000000
     Energy error            =      4.9E-05
     Gradient error          =      3.0E-03

[...]

     energy   old            =    -395.6857192374 Ry
     energy   new            =    -395.6857685491 Ry

     CASE: energy  _new < energy  _old

[...]

     number of scf cycles    =   7
     number of bfgs steps    =   6

     energy   old            =    -395.6858058255 Ry
     energy   new            =    -395.6858064804 Ry

     CASE: energy  _new < energy  _old

     new trust radius        =       0.0003503840 bohr
     new conv_thr            =            1.0E-16 Ry

ATOMIC_POSITIONS (crystal)
Ga            0.6666619635        0.3333380364        0.0000000000    1   1   0
Ga            0.3333380402        0.6666619598        0.5000038416
N             0.6666759157        0.3333240843        0.3769428683
N             0.3333240805        0.6666759195        0.8769306859

     Writing output data file ./gan_wz/gan_wz.save/
     NEW-OLD atomic charge density approx. for the potential

     Self-consistent Calculation

[...]

     Threshold (ethr) on eigenvalues was too large:
     Diagonalizing with lowered threshold

     Davidson diagonalization with overlap
     ethr =  2.53E-11,  avg # of iterations =  6.2

[...]

     total energy              =    -395.68580653 Ry
     estimated scf accuracy    <          1.0E-16 Ry

     iteration # 27     ecut=    60.00 Ry     beta= 0.70
     Davidson diagonalization with overlap
     ethr =  1.00E-13,  avg # of iterations =  1.0

     End of self-consistent calculation

[...]

          k = 0.3571 0.1237-0.0768 (  2421 PWs)   bands (ev):

[...]

          k =-0.5000-0.8660 0.2305 (  2412 PWs)   bands (ev):

    -5.2784  -5.2124  -3.7298  -3.6858  -3.6310  -3.5585  -3.5173  -3.4610
    -3.4211  -3.4105  -2.1429  -1.9293   2.9341   3.3933   7.1392   7.4025
     8.0602   8.0978

     occupation numbers
     1.0000   1.0000   1.0000   1.0000   1.0000   1.0000   1.0000   1.0000
     1.0000   1.0000   1.0000   1.0000   1.0000   1.0000   1.0000   1.0000
     1.0000   1.0000

     highest occupied level (ev):     9.5684

!    total energy              =    -395.68580653 Ry
     estimated scf accuracy    <          3.7E-17 Ry

     The total energy is the sum of the following terms:
     one-electron contribution =    -187.66733140 Ry
     hartree contribution      =     133.55732426 Ry
     xc contribution           =    -108.40451011 Ry
     ewald contribution        =    -233.17128928 Ry

     convergence has been achieved in  27 iterations

     Forces acting on atoms (cartesian axes, Ry/au):

     atom    1 type  1   force =    -0.00000204    0.00000118    0.00002386
     atom    2 type  1   force =     0.00000203   -0.00000117   -0.00000333
     atom    3 type  2   force =     0.00000195   -0.00000113   -0.00004027
     atom    4 type  2   force =    -0.00000193    0.00000112    0.00001975
     The non-local contrib.  to forces
     atom    1 type  1   force =     0.00018270   -0.00010548   -0.00366426
     atom    2 type  1   force =    -0.00018275    0.00010551   -0.00375410
     atom    3 type  2   force =     0.00019323   -0.00011156    0.01497535
     atom    4 type  2   force =    -0.00019323    0.00011156    0.01511073
     The ionic contribution  to forces
     atom    1 type  1   force =    -0.00030029    0.00017337    0.13562497
     atom    2 type  1   force =     0.00030009   -0.00017326    0.13311106
     atom    3 type  2   force =    -0.00005240    0.00003025   -0.13502966
     atom    4 type  2   force =     0.00005260   -0.00003037   -0.13370638
     The local contribution  to forces
     atom    1 type  1   force =     0.00011851   -0.00006842   -0.13230555
     atom    2 type  1   force =    -0.00011828    0.00006829   -0.12973515
     atom    3 type  2   force =    -0.00013888    0.00008018    0.12003208
     atom    4 type  2   force =     0.00013869   -0.00008007    0.11863345
     The core correction contribution to forces
     atom    1 type  1   force =    -0.00000296    0.00000171    0.00038675
     atom    2 type  1   force =     0.00000296   -0.00000171    0.00039291
     atom    3 type  2   force =     0.00000000    0.00000000    0.00000000
     atom    4 type  2   force =     0.00000000    0.00000000    0.00000000
     The Hubbard contrib.    to forces
     atom    1 type  1   force =     0.00000000    0.00000000    0.00000000
     atom    2 type  1   force =     0.00000000    0.00000000    0.00000000
     atom    3 type  2   force =     0.00000000    0.00000000    0.00000000
     atom    4 type  2   force =     0.00000000    0.00000000    0.00000000
     The SCF correction term to forces
     atom    1 type  1   force =     0.00000000   -0.00000000   -0.00000000
     atom    2 type  1   force =     0.00000000   -0.00000000    0.00000000
     atom    3 type  2   force =     0.00000000   -0.00000000   -0.00000000
     atom    4 type  2   force =     0.00000000   -0.00000000   -0.00000000

     Total force =     0.000045     Total SCF correction =     0.000000
     Energy error            =      4.8E-08
     Gradient error          =      4.0E-05

     bfgs converged in   8 scf cycles and   7 bfgs steps
     (criteria: energy <  1.0E-05 Ry, force <  1.0E-04 Ry/Bohr)

     End of BFGS Geometry Optimization

     Final energy   =    -395.6858065279 Ry

     File ./gan_wz/gan_wz.bfgs deleted, as requested
Begin final coordinates

ATOMIC_POSITIONS (crystal)
Ga            0.6666619635        0.3333380364        0.0000000000    1   1   0
Ga            0.3333380402        0.6666619598        0.5000038416
N             0.6666759157        0.3333240843        0.3769428683
N             0.3333240805        0.6666759195        0.8769306859
End final coordinates

     Writing output data file ./gan_wz/gan_wz.save/

     General routines

     Parallel routines

   This run was terminated on:  20:42:21   3Nov2022

   JOB DONE.