     Program PWSCF v.6.7MaX starts on  3Nov2022 at 20:51:10

     Waiting for input...
     Reading input from standard input

     Current dimensions of program PWSCF are:
     Max number of different atomic species (ntypx) = 10
     Max number of k-points (npk) =  40000
     Max angular momentum in pseudopotentials (lmaxx) =  3
     file N.pbe-rrkjus.UPF: wavefunction(s)  2S renormalized

     Subspace diagonalization in iterative solution of the eigenvalue problem:
     a serial algorithm will be used

     bravais-lattice index     =            4
     lattice parameter (alat)  =       6.0282  a.u.
     unit-cell volume          =     308.5974 (a.u.)^3
     number of atoms/cell      =            4
     number of atomic types    =            2
     number of electrons       =        36.00
     number of Kohn-Sham states=           18
     kinetic-energy cutoff     =      60.0000  Ry
     charge density cutoff     =     360.0000  Ry
     scf convergence threshold =      1.0E-14
     mixing beta               =       0.7000
     number of iterations used =            8  plain     mixing
     energy convergence thresh.=      1.0E-05
     force convergence thresh. =      1.0E-04
     press convergence thresh. =      1.0E-01
     Exchange-correlation=  SLA  PW   PBE  PBE
                           (   1   4   3   4   0   0   0)
     nstep                     =          200

     celldm(1)=   6.028226  celldm(2)=   0.000000  celldm(3)=   1.626646
     celldm(4)=   0.000000  celldm(5)=   0.000000  celldm(6)=   0.000000

     crystal axes: (cart. coord. in units of alat)
               a(1) = (   1.000000   0.000000   0.000000 )
               a(2) = (  -0.500000   0.866025   0.000000 )
               a(3) = (   0.000000   0.000000   1.626646 )

     reciprocal axes: (cart. coord. in units 2 pi/alat)
               b(1) = (  1.000000  0.577350 -0.000000 )
               b(2) = (  0.000000  1.154701  0.000000 )
               b(3) = (  0.000000 -0.000000  0.614762 )

     PseudoPot. # 1 for Ga read from file:
     /home/shigeki/.burai/.pseudopot/Ga.pbe-n-van.UPF
     MD5 check sum: c4a2f5e459d74fd8114b062e68c1095a
     Pseudo is Ultrasoft + core correction, Zval = 13.0
     Generated by new atomic code, or converted to UPF format
     Using radial grid of  871 points,  6 beta functions with:
                l(1) =   0
                l(2) =   0
                l(3) =   1
                l(4) =   1
                l(5) =   2
                l(6) =   2
     Q(r) pseudized with  8 coefficients,  rinner =    1.000   1.000   1.000
                                                       1.000   1.000

     PseudoPot. # 2 for N  read from file:
     /home/shigeki/.burai/.pseudopot/N.pbe-rrkjus.UPF
     MD5 check sum: 0c3fbe5807a93f9ba59d5a7019aa238b
     Pseudo is Ultrasoft, Zval =  5.0
     Generated by new atomic code, or converted to UPF format
     Using radial grid of 1257 points,  4 beta functions with:
                l(1) =   0
                l(2) =   0
                l(3) =   1
                l(4) =   1
     Q(r) pseudized with 0 coefficients

     atomic species   valence    mass     pseudopotential
        Ga            13.00    69.72300     Ga( 1.00)
        N              5.00    14.00674     N ( 1.00)

     No symmetry found

                                    s                        frac. trans.

      isym =  1     identity

 cryst.   s( 1) = (     1          0          0      )
                  (     0          1          0      )
                  (     0          0          1      )

 cart.    s( 1) = (  1.0000000  0.0000000  0.0000000 )
                  (  0.0000000  1.0000000  0.0000000 )
                  (  0.0000000  0.0000000  1.0000000 )

     point group C_1 (1)
     there are  1 classes
     the character table:

       E
A      1.00

     the symmetry operations in each class and the name of the first element:

     E        1
          identity

   Cartesian axes

     site n.     atom                  positions (alat units)
         1           Ga  tau(   1) = (   0.4999929   0.2886792   0.0000000  )
         2           Ga  tau(   2) = (   0.0000071   0.5773462   0.8133291  )
         3           N   tau(   3) = (   0.5000139   0.2886671   0.6131525  )
         4           N   tau(   4) = (  -0.0000139   0.5773583   1.4264556  )

   Crystallographic axes

     site n.     atom                  positions (cryst. coord.)
         1           Ga  tau(   1) = (  0.6666620  0.3333380  0.0000000  )
         2           Ga  tau(   2) = (  0.3333380  0.6666620  0.5000038  )
         3           N   tau(   3) = (  0.6666759  0.3333241  0.3769429  )
         4           N   tau(   4) = (  0.3333241  0.6666759  0.8769307  )

     number of k points=    98
                       cart. coord. in units 2pi/alat
        k(    1) = (   0.0714286   0.1237179   0.0768452), wk =   0.0204082
        k(    2) = (   0.0714286   0.1237179   0.2305357), wk =   0.0204082
        k(    3) = (   0.0714286   0.1237179  -0.2305357), wk =   0.0204082
        k(    4) = (   0.0714286   0.1237179  -0.0768452), wk =   0.0204082
        k(    5) = (   0.0714286   0.2886751   0.0768452), wk =   0.0204082
        k(    6) = (   0.0714286   0.2886751   0.2305357), wk =   0.0204082
        k(    7) = (   0.0714286   0.2886751  -0.2305357), wk =   0.0204082
        k(    8) = (   0.0714286   0.2886751  -0.0768452), wk =   0.0204082
        k(    9) = (   0.0714286   0.4536324   0.0768452), wk =   0.0204082
        k(   10) = (   0.0714286   0.4536324   0.2305357), wk =   0.0204082
        k(   11) = (   0.0714286   0.4536324  -0.2305357), wk =   0.0204082
        k(   12) = (   0.0714286   0.4536324  -0.0768452), wk =   0.0204082
        k(   13) = (   0.0714286  -0.5361110   0.0768452), wk =   0.0204082
        k(   14) = (   0.0714286  -0.5361110   0.2305357), wk =   0.0204082
        k(   15) = (   0.0714286  -0.5361110  -0.2305357), wk =   0.0204082
        k(   16) = (   0.0714286  -0.5361110  -0.0768452), wk =   0.0204082
        k(   17) = (   0.0714286  -0.3711537   0.0768452), wk =   0.0204082
        k(   18) = (   0.0714286  -0.3711537   0.2305357), wk =   0.0204082
        k(   19) = (   0.0714286  -0.3711537  -0.2305357), wk =   0.0204082
        k(   20) = (   0.0714286  -0.3711537  -0.0768452), wk =   0.0204082
        k(   21) = (   0.0714286  -0.2061965   0.0768452), wk =   0.0204082
        k(   22) = (   0.0714286  -0.2061965   0.2305357), wk =   0.0204082
        k(   23) = (   0.0714286  -0.2061965  -0.2305357), wk =   0.0204082
        k(   24) = (   0.0714286  -0.2061965  -0.0768452), wk =   0.0204082
        k(   25) = (   0.0714286  -0.0412393   0.0768452), wk =   0.0204082
        k(   26) = (   0.0714286  -0.0412393   0.2305357), wk =   0.0204082
        k(   27) = (   0.0714286  -0.0412393  -0.2305357), wk =   0.0204082
        k(   28) = (   0.0714286  -0.0412393  -0.0768452), wk =   0.0204082
        k(   29) = (   0.2142857   0.2061965   0.0768452), wk =   0.0204082
        k(   30) = (   0.2142857   0.2061965   0.2305357), wk =   0.0204082
        k(   31) = (   0.2142857   0.2061965  -0.2305357), wk =   0.0204082
        k(   32) = (   0.2142857   0.2061965  -0.0768452), wk =   0.0204082
        k(   33) = (   0.2142857   0.3711537   0.0768452), wk =   0.0204082
        k(   34) = (   0.2142857   0.3711537   0.2305357), wk =   0.0204082
        k(   35) = (   0.2142857   0.3711537  -0.2305357), wk =   0.0204082
        k(   36) = (   0.2142857   0.3711537  -0.0768452), wk =   0.0204082
        k(   37) = (   0.2142857   0.5361110   0.0768452), wk =   0.0204082
        k(   38) = (   0.2142857   0.5361110   0.2305357), wk =   0.0204082
        k(   39) = (   0.2142857   0.5361110  -0.2305357), wk =   0.0204082
        k(   40) = (   0.2142857   0.5361110  -0.0768452), wk =   0.0204082
        k(   41) = (   0.2142857  -0.4536324   0.0768452), wk =   0.0204082
        k(   42) = (   0.2142857  -0.4536324   0.2305357), wk =   0.0204082
        k(   43) = (   0.2142857  -0.4536324  -0.2305357), wk =   0.0204082
        k(   44) = (   0.2142857  -0.4536324  -0.0768452), wk =   0.0204082
        k(   45) = (   0.2142857  -0.2886751   0.0768452), wk =   0.0204082
        k(   46) = (   0.2142857  -0.2886751   0.2305357), wk =   0.0204082
        k(   47) = (   0.2142857  -0.2886751  -0.2305357), wk =   0.0204082
        k(   48) = (   0.2142857  -0.2886751  -0.0768452), wk =   0.0204082
        k(   49) = (   0.2142857  -0.1237179   0.0768452), wk =   0.0204082
        k(   50) = (   0.2142857  -0.1237179   0.2305357), wk =   0.0204082
        k(   51) = (   0.2142857  -0.1237179  -0.2305357), wk =   0.0204082
        k(   52) = (   0.2142857  -0.1237179  -0.0768452), wk =   0.0204082
        k(   53) = (   0.2142857   0.0412393   0.0768452), wk =   0.0204082
        k(   54) = (   0.2142857   0.0412393   0.2305357), wk =   0.0204082
        k(   55) = (   0.2142857   0.0412393  -0.2305357), wk =   0.0204082
        k(   56) = (   0.2142857   0.0412393  -0.0768452), wk =   0.0204082
        k(   57) = (   0.3571429   0.2886751   0.0768452), wk =   0.0204082
        k(   58) = (   0.3571429   0.2886751   0.2305357), wk =   0.0204082
        k(   59) = (   0.3571429   0.2886751  -0.2305357), wk =   0.0204082
        k(   60) = (   0.3571429   0.2886751  -0.0768452), wk =   0.0204082
[...]
        k(   84) = (   0.3571429   0.1237179  -0.0768452), wk =   0.0204082
        k(   85) = (  -0.5000000  -0.2061965   0.0768452), wk =   0.0204082
        k(   86) = (  -0.5000000  -0.2061965   0.2305357), wk =   0.0204082
        k(   87) = (  -0.5000000  -0.2061965  -0.2305357), wk =   0.0204082
        k(   88) = (  -0.5000000  -0.2061965  -0.0768452), wk =   0.0204082
        k(   89) = (  -0.5000000  -0.0412393   0.0768452), wk =   0.0204082
        k(   90) = (  -0.5000000  -0.0412393   0.2305357), wk =   0.0204082
        k(   91) = (  -0.5000000  -0.0412393  -0.2305357), wk =   0.0204082
        k(   92) = (  -0.5000000  -0.0412393  -0.0768452), wk =   0.0204082
        k(   93) = (  -0.5000000   0.1237179   0.0768452), wk =   0.0204082
        k(   94) = (  -0.5000000   0.1237179   0.2305357), wk =   0.0204082
        k(   95) = (  -0.5000000   0.1237179  -0.2305357), wk =   0.0204082
        k(   96) = (  -0.5000000   0.1237179  -0.0768452), wk =   0.0204082
        k(   97) = (  -0.5000000  -0.8660254   0.0768452), wk =   0.0204082
        k(   98) = (  -0.5000000  -0.8660254   0.2305357), wk =   0.0204082

                       cryst. coord.
        k(    1) = (   0.0714286   0.0714286   0.1250000), wk =   0.0204082
        k(    2) = (   0.0714286   0.0714286   0.3750000), wk =   0.0204082
        k(    3) = (   0.0714286   0.0714286  -0.3750000), wk =   0.0204082
        k(    4) = (   0.0714286   0.0714286  -0.1250000), wk =   0.0204082
        k(    5) = (   0.0714286   0.2142857   0.1250000), wk =   0.0204082
        k(    6) = (   0.0714286   0.2142857   0.3750000), wk =   0.0204082
        k(    7) = (   0.0714286   0.2142857  -0.3750000), wk =   0.0204082
        k(    8) = (   0.0714286   0.2142857  -0.1250000), wk =   0.0204082
[...]
        k(   18) = (   0.0709238  -0.3683905   0.2285010), wk =   0.0204082
        k(   19) = (   0.0709239  -0.3683905  -0.2285010), wk =   0.0204082
        k(   20) = (   0.0709238  -0.3683905  -0.0761670), wk =   0.0204082
        k(   21) = (   0.0709137  -0.2046634   0.0761670), wk =   0.0204082
        k(   22) = (   0.0709137  -0.2046634   0.2285010), wk =   0.0204082
        k(   23) = (   0.0709137  -0.2046634  -0.2285010), wk =   0.0204082
        k(   24) = (   0.0709137  -0.2046634  -0.0761670), wk =   0.0204082
        k(   25) = (   0.0709036  -0.0409362   0.0761670), wk =   0.0204082
        k(   26) = (   0.0709035  -0.0409362   0.2285010), wk =   0.0204082
        k(   27) = (   0.0709036  -0.0409362  -0.2285010), wk =   0.0204082
        k(   28) = (   0.0709036  -0.0409362  -0.0761670), wk =   0.0204082
        k(   29) = (   0.2126904   0.2046458   0.0761670), wk =   0.0204082
        k(   30) = (   0.2126904   0.2046458   0.2285010), wk =   0.0204082
        k(   31) = (   0.2126904   0.2046458  -0.2285010), wk =   0.0204082
        k(   32) = (   0.2126904   0.2046458  -0.0761670), wk =   0.0204082
        k(   33) = (   0.2126802   0.3683730   0.0761670), wk =   0.0204082
        k(   34) = (   0.2126802   0.3683730   0.2285010), wk =   0.0204082
        k(   35) = (   0.2126802   0.3683730  -0.2285010), wk =   0.0204082
        k(   36) = (   0.2126802   0.3683730  -0.0761670), wk =   0.0204082
        k(   37) = (   0.2126701   0.5321002   0.0761670), wk =   0.0204082
        k(   38) = (   0.2126701   0.5321002   0.2285010), wk =   0.0204082
        k(   39) = (   0.2126701   0.5321001  -0.2285010), wk =   0.0204082
        k(   40) = (   0.2126701   0.5321002  -0.0761670), wk =   0.0204082
        k(   41) = (   0.2127309  -0.4502629   0.0761670), wk =   0.0204082
        k(   42) = (   0.2127309  -0.4502629   0.2285010), wk =   0.0204082
        k(   43) = (   0.2127310  -0.4502629  -0.2285010), wk =   0.0204082
        k(   44) = (   0.2127310  -0.4502629  -0.0761670), wk =   0.0204082
        k(   45) = (   0.2127208  -0.2865357   0.0761670), wk =   0.0204082
        k(   46) = (   0.2127208  -0.2865357   0.2285010), wk =   0.0204082
        k(   47) = (   0.2127208  -0.2865357  -0.2285010), wk =   0.0204082
        k(   48) = (   0.2127208  -0.2865357  -0.0761670), wk =   0.0204082
        k(   49) = (   0.2127107  -0.1228086   0.0761670), wk =   0.0204082
        k(   50) = (   0.2127107  -0.1228086   0.2285010), wk =   0.0204082
        k(   51) = (   0.2127107  -0.1228086  -0.2285010), wk =   0.0204082
        k(   52) = (   0.2127107  -0.1228086  -0.0761670), wk =   0.0204082
        k(   53) = (   0.2127005   0.0409186   0.0761670), wk =   0.0204082
        k(   54) = (   0.2127005   0.0409186   0.2285010), wk =   0.0204082
        k(   55) = (   0.2127005   0.0409186  -0.2285010), wk =   0.0204082
        k(   56) = (   0.2127005   0.0409186  -0.0761670), wk =   0.0204082
        k(   57) = (   0.3544873   0.2865006   0.0761670), wk =   0.0204082
        k(   58) = (   0.3544873   0.2865006   0.2285010), wk =   0.0204082
        k(   59) = (   0.3544874   0.2865006  -0.2285010), wk =   0.0204082
        k(   60) = (   0.3544874   0.2865006  -0.0761670), wk =   0.0204082
[...]
        k(   84) = (   0.3544975   0.1227734  -0.0761670), wk =   0.0204082
        k(   85) = (  -0.4962945  -0.2046282   0.0761670), wk =   0.0204082
        k(   86) = (  -0.4962945  -0.2046282   0.2285010), wk =   0.0204082
        k(   87) = (  -0.4962944  -0.2046282  -0.2285010), wk =   0.0204082
        k(   88) = (  -0.4962945  -0.2046282  -0.0761670), wk =   0.0204082
        k(   89) = (  -0.4963046  -0.0409010   0.0761670), wk =   0.0204082
        k(   90) = (  -0.4963046  -0.0409010   0.2285010), wk =   0.0204082
        k(   91) = (  -0.4963046  -0.0409011  -0.2285010), wk =   0.0204082
        k(   92) = (  -0.4963046  -0.0409011  -0.0761670), wk =   0.0204082
        k(   93) = (  -0.4963147   0.1228261   0.0761670), wk =   0.0204082
        k(   94) = (  -0.4963148   0.1228261   0.2285010), wk =   0.0204082
        k(   95) = (  -0.4963147   0.1228261  -0.2285010), wk =   0.0204082
        k(   96) = (  -0.4963147   0.1228261  -0.0761670), wk =   0.0204082
        k(   97) = (  -0.4962539  -0.8595369   0.0761670), wk =   0.0204082
        k(   98) = (  -0.4962539  -0.8595369   0.2285010), wk =   0.0204082

                       cryst. coord.
        k(    1) = (   0.0714286   0.0714286   0.1250000), wk =   0.0204082
        k(    2) = (   0.0714286   0.0714286   0.3750000), wk =   0.0204082
        k(    3) = (   0.0714286   0.0714286  -0.3750000), wk =   0.0204082
        k(    4) = (   0.0714286   0.0714286  -0.1250000), wk =   0.0204082
        k(    5) = (   0.0714286   0.2142857   0.1250000), wk =   0.0204082
        k(    6) = (   0.0714286   0.2142857   0.3750000), wk =   0.0204082
        k(    7) = (   0.0714286   0.2142857  -0.3750000), wk =   0.0204082
        k(    8) = (   0.0714286   0.2142857  -0.1250000), wk =   0.0204082
        k(    9) = (   0.0714286   0.3571429   0.1250000), wk =   0.0204082
        k(   10) = (   0.0714286   0.3571429   0.3750000), wk =   0.0204082
        k(   11) = (   0.0714286   0.3571429  -0.3750000), wk =   0.0204082
        k(   12) = (   0.0714286   0.3571429  -0.1250000), wk =   0.0204082
        k(   13) = (   0.0714286  -0.5000000   0.1250000), wk =   0.0204082
        k(   14) = (   0.0714286  -0.5000000   0.3750000), wk =   0.0204082
        k(   15) = (   0.0714286  -0.5000000  -0.3750000), wk =   0.0204082
        k(   16) = (   0.0714286  -0.5000000  -0.1250000), wk =   0.0204082
        k(   17) = (   0.0714286  -0.3571429   0.1250000), wk =   0.0204082
        k(   18) = (   0.0714286  -0.3571429   0.3750000), wk =   0.0204082
        k(   19) = (   0.0714286  -0.3571429  -0.3750000), wk =   0.0204082
        k(   20) = (   0.0714286  -0.3571429  -0.1250000), wk =   0.0204082
        k(   21) = (   0.0714286  -0.2142857   0.1250000), wk =   0.0204082
        k(   22) = (   0.0714286  -0.2142857   0.3750000), wk =   0.0204082
        k(   23) = (   0.0714286  -0.2142857  -0.3750000), wk =   0.0204082
        k(   24) = (   0.0714286  -0.2142857  -0.1250000), wk =   0.0204082
        k(   25) = (   0.0714286  -0.0714286   0.1250000), wk =   0.0204082
        k(   26) = (   0.0714286  -0.0714286   0.3750000), wk =   0.0204082
        k(   27) = (   0.0714286  -0.0714286  -0.3750000), wk =   0.0204082
        k(   28) = (   0.0714286  -0.0714286  -0.1250000), wk =   0.0204082
        k(   29) = (   0.2142857   0.0714286   0.1250000), wk =   0.0204082
        k(   30) = (   0.2142857   0.0714286   0.3750000), wk =   0.0204082
        k(   31) = (   0.2142857   0.0714286  -0.3750000), wk =   0.0204082
        k(   32) = (   0.2142857   0.0714286  -0.1250000), wk =   0.0204082
        k(   33) = (   0.2142857   0.2142857   0.1250000), wk =   0.0204082
        k(   34) = (   0.2142857   0.2142857   0.3750000), wk =   0.0204082
        k(   35) = (   0.2142857   0.2142857  -0.3750000), wk =   0.0204082
        k(   36) = (   0.2142857   0.2142857  -0.1250000), wk =   0.0204082
        k(   37) = (   0.2142857   0.3571429   0.1250000), wk =   0.0204082
        k(   38) = (   0.2142857   0.3571429   0.3750000), wk =   0.0204082
        k(   39) = (   0.2142857   0.3571429  -0.3750000), wk =   0.0204082
        k(   40) = (   0.2142857   0.3571429  -0.1250000), wk =   0.0204082
        k(   41) = (   0.2142857  -0.5000000   0.1250000), wk =   0.0204082
        k(   42) = (   0.2142857  -0.5000000   0.3750000), wk =   0.0204082
        k(   43) = (   0.2142857  -0.5000000  -0.3750000), wk =   0.0204082
        k(   44) = (   0.2142857  -0.5000000  -0.1250000), wk =   0.0204082
        k(   45) = (   0.2142857  -0.3571429   0.1250000), wk =   0.0204082
        k(   46) = (   0.2142857  -0.3571429   0.3750000), wk =   0.0204082
        k(   47) = (   0.2142857  -0.3571429  -0.3750000), wk =   0.0204082
        k(   48) = (   0.2142857  -0.3571429  -0.1250000), wk =   0.0204082
        k(   49) = (   0.2142857  -0.2142857   0.1250000), wk =   0.0204082
        k(   50) = (   0.2142857  -0.2142857   0.3750000), wk =   0.0204082
        k(   51) = (   0.2142857  -0.2142857  -0.3750000), wk =   0.0204082
        k(   52) = (   0.2142857  -0.2142857  -0.1250000), wk =   0.0204082
        k(   53) = (   0.2142857  -0.0714286   0.1250000), wk =   0.0204082
        k(   54) = (   0.2142857  -0.0714286   0.3750000), wk =   0.0204082
        k(   55) = (   0.2142857  -0.0714286  -0.3750000), wk =   0.0204082
        k(   56) = (   0.2142857  -0.0714286  -0.1250000), wk =   0.0204082
        k(   57) = (   0.3571429   0.0714286   0.1250000), wk =   0.0204082
        k(   58) = (   0.3571429   0.0714286   0.3750000), wk =   0.0204082
        k(   59) = (   0.3571429   0.0714286  -0.3750000), wk =   0.0204082
        k(   60) = (   0.3571429   0.0714286  -0.1250000), wk =   0.0204082
[...]
        k(   84) = (   0.3571429  -0.0714286  -0.1250000), wk =   0.0204082
        k(   85) = (  -0.5000000   0.0714286   0.1250000), wk =   0.0204082
        k(   86) = (  -0.5000000   0.0714286   0.3750000), wk =   0.0204082
        k(   87) = (  -0.5000000   0.0714286  -0.3750000), wk =   0.0204082
        k(   88) = (  -0.5000000   0.0714286  -0.1250000), wk =   0.0204082
        k(   89) = (  -0.5000000   0.2142857   0.1250000), wk =   0.0204082
        k(   90) = (  -0.5000000   0.2142857   0.3750000), wk =   0.0204082
        k(   91) = (  -0.5000000   0.2142857  -0.3750000), wk =   0.0204082
        k(   92) = (  -0.5000000   0.2142857  -0.1250000), wk =   0.0204082
        k(   93) = (  -0.5000000   0.3571429   0.1250000), wk =   0.0204082
        k(   94) = (  -0.5000000   0.3571429   0.3750000), wk =   0.0204082
        k(   95) = (  -0.5000000   0.3571429  -0.3750000), wk =   0.0204082
        k(   96) = (  -0.5000000   0.3571429  -0.1250000), wk =   0.0204082
        k(   97) = (  -0.5000000  -0.5000000   0.1250000), wk =   0.0204082
        k(   98) = (  -0.5000000  -0.5000000   0.3750000), wk =   0.0204082

     Initial potential from superposition of free atoms

     starting charge   35.99427, renormalised to   36.00000
     Starting wfcs are   26 randomized atomic wfcs

     Self-consistent Calculation

[...]

     total energy              =    -395.68691798 Ry
     estimated scf accuracy    <          2.0E-16 Ry

     iteration # 34     ecut=    60.00 Ry     beta= 0.70
     Davidson diagonalization with overlap
     ethr =  1.00E-13,  avg # of iterations =  1.0

     End of self-consistent calculation

[...]

          k = 0.3545 0.1228-0.0762 (  2487 PWs)   bands (ev):

[...]

          k =-0.4963-0.8595 0.2285 (  2462 PWs)   bands (ev):

    -5.5217  -5.4641  -4.0720  -4.0310  -3.9822  -3.9150  -3.8757  -3.8242
    -3.7873  -3.7776  -2.4977  -2.2845   2.7097   3.1526   6.8397   7.1175
     7.7535   7.7828

     occupation numbers
     1.0000   1.0000   1.0000   1.0000   1.0000   1.0000   1.0000   1.0000
     1.0000   1.0000   1.0000   1.0000   1.0000   1.0000   1.0000   1.0000
     1.0000   1.0000

     highest occupied level (ev):     9.2173

!    total energy              =    -395.68691798 Ry
     estimated scf accuracy    <          2.1E-17 Ry

     The total energy is the sum of the following terms:
     one-electron contribution =    -190.54304537 Ry
     hartree contribution      =     134.52817666 Ry
     xc contribution           =    -108.33806361 Ry
     ewald contribution        =    -231.33398565 Ry

     convergence has been achieved in  34 iterations

     Forces acting on atoms (cartesian axes, Ry/au):

     atom    1 type  1   force =    -0.00000248    0.00000142    0.00018864
     atom    2 type  1   force =     0.00000244   -0.00000140   -0.00008525
     atom    3 type  2   force =     0.00000311   -0.00000180   -0.00004925
     atom    4 type  2   force =    -0.00000307    0.00000178   -0.00005415
     The non-local contrib.  to forces
     atom    1 type  1   force =     0.00037726   -0.00021786    0.00057130
     atom    2 type  1   force =    -0.00037768    0.00021808    0.00082026
     atom    3 type  2   force =     0.00011333   -0.00006543    0.01756826
     atom    4 type  2   force =    -0.00011353    0.00006553    0.01711780
     The ionic contribution  to forces
     atom    1 type  1   force =     0.00103128   -0.00059575    0.16147136
     atom    2 type  1   force =    -0.00103308    0.00059666    0.14794343
     atom    3 type  2   force =     0.00111915   -0.00064631   -0.15750868
     atom    4 type  2   force =    -0.00111735    0.00064539   -0.15190610
     The local contribution  to forces
     atom    1 type  1   force =    -0.00140073    0.00080908   -0.16201052
     atom    2 type  1   force =     0.00140289   -0.00081019   -0.14902103
     atom    3 type  2   force =    -0.00122937    0.00070993    0.13990601
     atom    4 type  2   force =     0.00122781   -0.00070914    0.13474899
     The core correction contribution to forces
     atom    1 type  1   force =    -0.00001030    0.00000595    0.00017135
     atom    2 type  1   force =     0.00001032   -0.00000596    0.00018692
     atom    3 type  2   force =     0.00000000    0.00000000    0.00000000
     atom    4 type  2   force =     0.00000000    0.00000000    0.00000000
     The Hubbard contrib.    to forces
     atom    1 type  1   force =     0.00000000    0.00000000    0.00000000
     atom    2 type  1   force =     0.00000000    0.00000000    0.00000000
     atom    3 type  2   force =     0.00000000    0.00000000    0.00000000
     atom    4 type  2   force =     0.00000000    0.00000000    0.00000000
     The SCF correction term to forces
     atom    1 type  1   force =    -0.00000000    0.00000000   -0.00000000
     atom    2 type  1   force =     0.00000000    0.00000000   -0.00000000
     atom    3 type  2   force =    -0.00000000    0.00000000   -0.00000000
     atom    4 type  2   force =     0.00000000    0.00000000    0.00000000

     Total force =     0.000113     Total SCF correction =     0.000000

     Computing stress (Cartesian axis) and pressure

          total   stress  (Ry/bohr**3)                   (kbar)     P=        0.12
   0.00000090   0.00000001  -0.00000001            0.13        0.00       -0.00
   0.00000001   0.00000090   0.00000000            0.00        0.13        0.00
  -0.00000001   0.00000000   0.00000068           -0.00        0.00        0.10

     kinetic stress (kbar)  10591.29      0.35     -0.00
                                0.35  10591.69      0.00
                               -0.00      0.00  10604.40

     local   stress (kbar)   4478.41     -1.70     -0.00
                               -1.70   4476.45      0.00
                               -0.00      0.00   2758.82

     nonloc. stress (kbar)  10198.52      0.27      0.00
                                0.27  10198.83     -0.00
                                0.00     -0.00  10186.50

     hartree stress (kbar)  20611.02      0.40      0.00
                                0.40  20611.48     -0.00
                                0.00     -0.00  21399.71

     exc-cor stress (kbar)  12486.89      0.00      0.00
                                0.00  12486.89     -0.00
                                0.00     -0.00  12487.24

     corecor stress (kbar) -22161.15     -0.01     -0.00
                               -0.01 -22161.15      0.00
                               -0.00      0.00 -22160.64

     ewald   stress (kbar) -36204.86      0.69     -0.00
                                0.69 -36204.06      0.00
                               -0.00      0.00 -35275.94

     hubbard stress (kbar)      0.00      0.00      0.00
                                0.00      0.00      0.00
                                0.00      0.00      0.00

     DFT-D   stress (kbar)      0.00      0.00      0.00
                                0.00      0.00      0.00
                                0.00      0.00      0.00

     XDM     stress (kbar)      0.00      0.00      0.00
                                0.00      0.00      0.00
                                0.00      0.00      0.00

     dft-nl  stress (kbar)      0.00      0.00      0.00
                                0.00      0.00      0.00
                                0.00      0.00      0.00

     TS-vdW  stress (kbar)      0.00      0.00      0.00
                                0.00      0.00      0.00
                                0.00      0.00      0.00

     Writing output data file ./gan_wz/gan_wz.save/

     General routines

     Parallel routines

   This run was terminated on:  21:59:10   3Nov2022

   JOB DONE.