     Program PWSCF v.6.7MaX starts on  9Nov2022 at 19:17:38

     Waiting for input...
     Reading input from standard input

     Current dimensions of program PWSCF are:
     Max number of different atomic species (ntypx) = 10
     Max number of k-points (npk) =  40000
     Max angular momentum in pseudopotentials (lmaxx) =  3
     file Ga.pbe-dnl-rrkjus_psl.1.0.0.UPF: wavefunction(s)  3D renormalized

     Subspace diagonalization in iterative solution of the eigenvalue problem:
     a serial algorithm will be used

     bravais-lattice index     =            4
     lattice parameter (alat)  =       6.0282  a.u.
     unit-cell volume          =     308.5974 (a.u.)^3
     number of atoms/cell      =            4
     number of atomic types    =            2
     number of electrons       =        36.00
     number of Kohn-Sham states=           18
     kinetic-energy cutoff     =      60.0000  Ry
     charge density cutoff     =     360.0000  Ry
     scf convergence threshold =      1.0E-14
     mixing beta               =       0.7000
     number of iterations used =            8  plain     mixing
     energy convergence thresh.=      1.0E-05
     force convergence thresh. =      1.0E-04
     press convergence thresh. =      1.0E-01
     Exchange-correlation= PBE
                           (   1   4   3   4   0   0   0)
     nstep                     =          200

     celldm(1)=   6.028226  celldm(2)=   0.000000  celldm(3)=   1.626646
     celldm(4)=   0.000000  celldm(5)=   0.000000  celldm(6)=   0.000000

     crystal axes: (cart. coord. in units of alat)
               a(1) = (   1.000000   0.000000   0.000000 )
               a(2) = (  -0.500000   0.866025   0.000000 )
               a(3) = (   0.000000   0.000000   1.626646 )

     reciprocal axes: (cart. coord. in units 2 pi/alat)
               b(1) = (  1.000000  0.577350 -0.000000 )
               b(2) = (  0.000000  1.154701  0.000000 )
               b(3) = (  0.000000 -0.000000  0.614762 )

     PseudoPot. # 1 for Ga read from file:
     ./PP/Ga.pbe-dnl-rrkjus_psl.1.0.0.UPF
     MD5 check sum: 270b2196c8436448097a4541768b2cf5
     Pseudo is Ultrasoft + core correction, Zval = 13.0
     Generated using &quot;atomic&quot; code by A. Dal Corso  v.6.3
     Using radial grid of 1205 points,  6 beta functions with:
                l(1) =   0
                l(2) =   0
                l(3) =   1
                l(4) =   1
                l(5) =   2
                l(6) =   2
     Q(r) pseudized with 0 coefficients

     PseudoPot. # 2 for N  read from file:
     ./PP/N.pbe-n-rrkjus_psl.1.0.0.UPF
     MD5 check sum: ada94e3ed05223de5319d0572dc76806
     Pseudo is Ultrasoft + core correction, Zval =  5.0
     Generated using &quot;atomic&quot; code by A. Dal Corso  v.6.3MaX
     Using radial grid of 1085 points,  4 beta functions with:
                l(1) =   0
                l(2) =   0
                l(3) =   1
                l(4) =   1
     Q(r) pseudized with 0 coefficients

     atomic species   valence    mass     pseudopotential
        Ga            13.00    69.72300     Ga( 1.00)
        N              5.00    14.00674     N ( 1.00)

     No symmetry found

                                    s                        frac. trans.

      isym =  1     identity

 cryst.   s( 1) = (     1          0          0      )
                  (     0          1          0      )
                  (     0          0          1      )

 cart.    s( 1) = (  1.0000000  0.0000000  0.0000000 )
                  (  0.0000000  1.0000000  0.0000000 )
                  (  0.0000000  0.0000000  1.0000000 )

     point group C_1 (1)
     there are  1 classes
     the character table:

       E
A      1.00

     the symmetry operations in each class and the name of the first element:

     E        1
          identity

   Cartesian axes

     site n.     atom                  positions (alat units)
         1           Ga  tau(   1) = (   0.4999929   0.2886793   0.0000000  )
         2           Ga  tau(   2) = (   0.0000071   0.5773461   0.8133296  )
         3           N   tau(   3) = (   0.5000142   0.2886669   0.6130885  )
         4           N   tau(   4) = (  -0.0000142   0.5773585   1.4263911  )

   Crystallographic axes

     site n.     atom                  positions (cryst. coord.)
         1           Ga  tau(   1) = (  0.6666619  0.3333381  0.0000000  )
         2           Ga  tau(   2) = (  0.3333381  0.6666619  0.5000042  )
         3           N   tau(   3) = (  0.6666761  0.3333239  0.3769035  )
         4           N   tau(   4) = (  0.3333238  0.6666761  0.8768910  )

     number of k points=    98
                       cart. coord. in units 2pi/alat
        k(    1) = (   0.0714286   0.1237179   0.0768452), wk =   0.0204082
        k(    2) = (   0.0714286   0.1237179   0.2305357), wk =   0.0204082
        k(    3) = (   0.0714286   0.1237179  -0.2305357), wk =   0.0204082
        k(    4) = (   0.0714286   0.1237179  -0.0768452), wk =   0.0204082
        k(    5) = (   0.0714286   0.2886751   0.0768452), wk =   0.0204082
        k(    6) = (   0.0714286   0.2886751   0.2305357), wk =   0.0204082
        k(    7) = (   0.0714286   0.2886751  -0.2305357), wk =   0.0204082
        k(    8) = (   0.0714286   0.2886751  -0.0768452), wk =   0.0204082
        k(    9) = (   0.0714286   0.4536324   0.0768452), wk =   0.0204082
        k(   10) = (   0.0714286   0.4536324   0.2305357), wk =   0.0204082
        k(   11) = (   0.0714286   0.4536324  -0.2305357), wk =   0.0204082
        k(   12) = (   0.0714286   0.4536324  -0.0768452), wk =   0.0204082
        k(   13) = (   0.0714286  -0.5361110   0.0768452), wk =   0.0204082
        k(   14) = (   0.0714286  -0.5361110   0.2305357), wk =   0.0204082
        k(   15) = (   0.0714286  -0.5361110  -0.2305357), wk =   0.0204082
        k(   16) = (   0.0714286  -0.5361110  -0.0768452), wk =   0.0204082
        k(   17) = (   0.0714286  -0.3711537   0.0768452), wk =   0.0204082
        k(   18) = (   0.0714286  -0.3711537   0.2305357), wk =   0.0204082
        k(   19) = (   0.0714286  -0.3711537  -0.2305357), wk =   0.0204082
        k(   20) = (   0.0714286  -0.3711537  -0.0768452), wk =   0.0204082
        k(   21) = (   0.0714286  -0.2061965   0.0768452), wk =   0.0204082
        k(   22) = (   0.0714286  -0.2061965   0.2305357), wk =   0.0204082
        k(   23) = (   0.0714286  -0.2061965  -0.2305357), wk =   0.0204082
        k(   24) = (   0.0714286  -0.2061965  -0.0768452), wk =   0.0204082
        k(   25) = (   0.0714286  -0.0412393   0.0768452), wk =   0.0204082
        k(   26) = (   0.0714286  -0.0412393   0.2305357), wk =   0.0204082
        k(   27) = (   0.0714286  -0.0412393  -0.2305357), wk =   0.0204082
        k(   28) = (   0.0714286  -0.0412393  -0.0768452), wk =   0.0204082
        k(   29) = (   0.2142857   0.2061965   0.0768452), wk =   0.0204082
        k(   30) = (   0.2142857   0.2061965   0.2305357), wk =   0.0204082
        k(   31) = (   0.2142857   0.2061965  -0.2305357), wk =   0.0204082
        k(   32) = (   0.2142857   0.2061965  -0.0768452), wk =   0.0204082
        k(   33) = (   0.2142857   0.3711537   0.0768452), wk =   0.0204082
        k(   34) = (   0.2142857   0.3711537   0.2305357), wk =   0.0204082
        k(   35) = (   0.2142857   0.3711537  -0.2305357), wk =   0.0204082
        k(   36) = (   0.2142857   0.3711537  -0.0768452), wk =   0.0204082
        k(   37) = (   0.2142857   0.5361110   0.0768452), wk =   0.0204082
        k(   38) = (   0.2142857   0.5361110   0.2305357), wk =   0.0204082
        k(   39) = (   0.2142857   0.5361110  -0.2305357), wk =   0.0204082
        k(   40) = (   0.2142857   0.5361110  -0.0768452), wk =   0.0204082
        k(   41) = (   0.2142857  -0.4536324   0.0768452), wk =   0.0204082
        k(   42) = (   0.2142857  -0.4536324   0.2305357), wk =   0.0204082
        k(   43) = (   0.2142857  -0.4536324  -0.2305357), wk =   0.0204082
        k(   44) = (   0.2142857  -0.4536324  -0.0768452), wk =   0.0204082
        k(   45) = (   0.2142857  -0.2886751   0.0768452), wk =   0.0204082
        k(   46) = (   0.2142857  -0.2886751   0.2305357), wk =   0.0204082
        k(   47) = (   0.2142857  -0.2886751  -0.2305357), wk =   0.0204082
        k(   48) = (   0.2142857  -0.2886751  -0.0768452), wk =   0.0204082
        k(   49) = (   0.2142857  -0.1237179   0.0768452), wk =   0.0204082
        k(   50) = (   0.2142857  -0.1237179   0.2305357), wk =   0.0204082
        k(   51) = (   0.2142857  -0.1237179  -0.2305357), wk =   0.0204082
        k(   52) = (   0.2142857  -0.1237179  -0.0768452), wk =   0.0204082
        k(   53) = (   0.2142857   0.0412393   0.0768452), wk =   0.0204082
        k(   54) = (   0.2142857   0.0412393   0.2305357), wk =   0.0204082
        k(   55) = (   0.2142857   0.0412393  -0.2305357), wk =   0.0204082
        k(   56) = (   0.2142857   0.0412393  -0.0768452), wk =   0.0204082
        k(   57) = (   0.3571429   0.2886751   0.0768452), wk =   0.0204082
        k(   58) = (   0.3571429   0.2886751   0.2305357), wk =   0.0204082
        k(   59) = (   0.3571429   0.2886751  -0.2305357), wk =   0.0204082
        k(   60) = (   0.3571429   0.2886751  -0.0768452), wk =   0.0204082
[...]
        k(   84) = (   0.3571429   0.1237179  -0.0768452), wk =   0.0204082
        k(   85) = (  -0.5000000  -0.2061965   0.0768452), wk =   0.0204082
        k(   86) = (  -0.5000000  -0.2061965   0.2305357), wk =   0.0204082
        k(   87) = (  -0.5000000  -0.2061965  -0.2305357), wk =   0.0204082
        k(   88) = (  -0.5000000  -0.2061965  -0.0768452), wk =   0.0204082
        k(   89) = (  -0.5000000  -0.0412393   0.0768452), wk =   0.0204082
        k(   90) = (  -0.5000000  -0.0412393   0.2305357), wk =   0.0204082
        k(   91) = (  -0.5000000  -0.0412393  -0.2305357), wk =   0.0204082
        k(   92) = (  -0.5000000  -0.0412393  -0.0768452), wk =   0.0204082
        k(   93) = (  -0.5000000   0.1237179   0.0768452), wk =   0.0204082
        k(   94) = (  -0.5000000   0.1237179   0.2305357), wk =   0.0204082
        k(   95) = (  -0.5000000   0.1237179  -0.2305357), wk =   0.0204082
        k(   96) = (  -0.5000000   0.1237179  -0.0768452), wk =   0.0204082
        k(   97) = (  -0.5000000  -0.8660254   0.0768452), wk =   0.0204082
        k(   98) = (  -0.5000000  -0.8660254   0.2305357), wk =   0.0204082

                       cryst. coord.
        k(    1) = (   0.0714286   0.0714286   0.1250000), wk =   0.0204082
        k(    2) = (   0.0714286   0.0714286   0.3750000), wk =   0.0204082
        k(    3) = (   0.0714286   0.0714286  -0.3750000), wk =   0.0204082
        k(    4) = (   0.0714286   0.0714286  -0.1250000), wk =   0.0204082
        k(    5) = (   0.0714286   0.2142857   0.1250000), wk =   0.0204082
        k(    6) = (   0.0714286   0.2142857   0.3750000), wk =   0.0204082
        k(    7) = (   0.0714286   0.2142857  -0.3750000), wk =   0.0204082
        k(    8) = (   0.0714286   0.2142857  -0.1250000), wk =   0.0204082
        k(    9) = (   0.0714286   0.3571429   0.1250000), wk =   0.0204082
[...]
        k(   19) = (   0.0708919  -0.3682086  -0.2283360), wk =   0.0204082
        k(   20) = (   0.0708919  -0.3682086  -0.0761120), wk =   0.0204082
        k(   21) = (   0.0708806  -0.2045625   0.0761120), wk =   0.0204082
        k(   22) = (   0.0708806  -0.2045625   0.2283360), wk =   0.0204082
        k(   23) = (   0.0708806  -0.2045625  -0.2283360), wk =   0.0204082
        k(   24) = (   0.0708806  -0.2045625  -0.0761120), wk =   0.0204082
        k(   25) = (   0.0708693  -0.0409164   0.0761120), wk =   0.0204082
        k(   26) = (   0.0708693  -0.0409164   0.2283360), wk =   0.0204082
        k(   27) = (   0.0708693  -0.0409164  -0.2283360), wk =   0.0204082
        k(   28) = (   0.0708693  -0.0409164  -0.0761120), wk =   0.0204082
        k(   29) = (   0.2125854   0.2045430   0.0761120), wk =   0.0204082
        k(   30) = (   0.2125854   0.2045430   0.2283360), wk =   0.0204082
        k(   31) = (   0.2125854   0.2045430  -0.2283360), wk =   0.0204082
        k(   32) = (   0.2125854   0.2045430  -0.0761120), wk =   0.0204082
        k(   33) = (   0.2125741   0.3681891   0.0761120), wk =   0.0204082
        k(   34) = (   0.2125741   0.3681891   0.2283360), wk =   0.0204082
        k(   35) = (   0.2125741   0.3681891  -0.2283360), wk =   0.0204082
        k(   36) = (   0.2125741   0.3681891  -0.0761120), wk =   0.0204082
        k(   37) = (   0.2125628   0.5318352   0.0761120), wk =   0.0204082
        k(   38) = (   0.2125628   0.5318352   0.2283360), wk =   0.0204082
        k(   39) = (   0.2125628   0.5318352  -0.2283360), wk =   0.0204082
        k(   40) = (   0.2125628   0.5318352  -0.0761120), wk =   0.0204082
        k(   41) = (   0.2126305  -0.4500415   0.0761120), wk =   0.0204082
        k(   42) = (   0.2126305  -0.4500415   0.2283360), wk =   0.0204082
        k(   43) = (   0.2126305  -0.4500415  -0.2283360), wk =   0.0204082
        k(   44) = (   0.2126305  -0.4500415  -0.0761120), wk =   0.0204082
        k(   45) = (   0.2126192  -0.2863954   0.0761120), wk =   0.0204082
        k(   46) = (   0.2126192  -0.2863954   0.2283360), wk =   0.0204082
        k(   47) = (   0.2126192  -0.2863954  -0.2283360), wk =   0.0204082
        k(   48) = (   0.2126192  -0.2863954  -0.0761120), wk =   0.0204082
        k(   49) = (   0.2126079  -0.1227493   0.0761120), wk =   0.0204082
        k(   50) = (   0.2126079  -0.1227493   0.2283360), wk =   0.0204082
        k(   51) = (   0.2126079  -0.1227493  -0.2283360), wk =   0.0204082
        k(   52) = (   0.2126079  -0.1227493  -0.0761120), wk =   0.0204082
        k(   53) = (   0.2125967   0.0408969   0.0761120), wk =   0.0204082
        k(   54) = (   0.2125967   0.0408969   0.2283360), wk =   0.0204082
        k(   55) = (   0.2125966   0.0408969  -0.2283360), wk =   0.0204082
        k(   56) = (   0.2125967   0.0408969  -0.0761120), wk =   0.0204082
        k(   57) = (   0.3543127   0.2863563   0.0761120), wk =   0.0204082
        k(   58) = (   0.3543127   0.2863563   0.2283360), wk =   0.0204082
        k(   59) = (   0.3543127   0.2863563  -0.2283360), wk =   0.0204082
        k(   60) = (   0.3543127   0.2863563  -0.0761120), wk =   0.0204082
[...]
        k(   84) = (   0.3543240   0.1227101  -0.0761120), wk =   0.0204082
        k(   85) = (  -0.4960513  -0.2045234   0.0761120), wk =   0.0204082
        k(   86) = (  -0.4960513  -0.2045234   0.2283360), wk =   0.0204082
        k(   87) = (  -0.4960513  -0.2045234  -0.2283360), wk =   0.0204082
        k(   88) = (  -0.4960513  -0.2045234  -0.0761120), wk =   0.0204082
        k(   89) = (  -0.4960626  -0.0408773   0.0761120), wk =   0.0204082
        k(   90) = (  -0.4960626  -0.0408773   0.2283360), wk =   0.0204082
        k(   91) = (  -0.4960626  -0.0408773  -0.2283360), wk =   0.0204082
        k(   92) = (  -0.4960626  -0.0408773  -0.0761120), wk =   0.0204082
        k(   93) = (  -0.4960739   0.1227688   0.0761120), wk =   0.0204082
        k(   94) = (  -0.4960739   0.1227688   0.2283360), wk =   0.0204082
        k(   95) = (  -0.4960739   0.1227688  -0.2283360), wk =   0.0204082
        k(   96) = (  -0.4960739   0.1227688  -0.0761120), wk =   0.0204082
        k(   97) = (  -0.4960062  -0.8591079   0.0761120), wk =   0.0204082
        k(   98) = (  -0.4960062  -0.8591079   0.2283360), wk =   0.0204082

                       cryst. coord.
        k(    1) = (   0.0714286   0.0714286   0.1250000), wk =   0.0204082
        k(    2) = (   0.0714286   0.0714286   0.3750000), wk =   0.0204082
        k(    3) = (   0.0714286   0.0714286  -0.3750000), wk =   0.0204082
        k(    4) = (   0.0714286   0.0714286  -0.1250000), wk =   0.0204082
        k(    5) = (   0.0714286   0.2142857   0.1250000), wk =   0.0204082
        k(    6) = (   0.0714286   0.2142857   0.3750000), wk =   0.0204082
        k(    7) = (   0.0714286   0.2142857  -0.3750000), wk =   0.0204082
        k(    8) = (   0.0714286   0.2142857  -0.1250000), wk =   0.0204082
        k(    9) = (   0.0714286   0.3571429   0.1250000), wk =   0.0204082
        k(   10) = (   0.0714286   0.3571429   0.3750000), wk =   0.0204082
        k(   11) = (   0.0714286   0.3571429  -0.3750000), wk =   0.0204082
        k(   12) = (   0.0714286   0.3571429  -0.1250000), wk =   0.0204082
        k(   13) = (   0.0714286  -0.5000000   0.1250000), wk =   0.0204082
        k(   14) = (   0.0714286  -0.5000000   0.3750000), wk =   0.0204082
        k(   15) = (   0.0714286  -0.5000000  -0.3750000), wk =   0.0204082
        k(   16) = (   0.0714286  -0.5000000  -0.1250000), wk =   0.0204082
        k(   17) = (   0.0714286  -0.3571429   0.1250000), wk =   0.0204082
        k(   18) = (   0.0714286  -0.3571429   0.3750000), wk =   0.0204082
        k(   19) = (   0.0714286  -0.3571429  -0.3750000), wk =   0.0204082
        k(   20) = (   0.0714286  -0.3571429  -0.1250000), wk =   0.0204082
        k(   21) = (   0.0714286  -0.2142857   0.1250000), wk =   0.0204082
        k(   22) = (   0.0714286  -0.2142857   0.3750000), wk =   0.0204082
        k(   23) = (   0.0714286  -0.2142857  -0.3750000), wk =   0.0204082
        k(   24) = (   0.0714286  -0.2142857  -0.1250000), wk =   0.0204082
        k(   25) = (   0.0714286  -0.0714286   0.1250000), wk =   0.0204082
        k(   26) = (   0.0714286  -0.0714286   0.3750000), wk =   0.0204082
        k(   27) = (   0.0714286  -0.0714286  -0.3750000), wk =   0.0204082
        k(   28) = (   0.0714286  -0.0714286  -0.1250000), wk =   0.0204082
        k(   29) = (   0.2142857   0.0714286   0.1250000), wk =   0.0204082
        k(   30) = (   0.2142857   0.0714286   0.3750000), wk =   0.0204082
        k(   31) = (   0.2142857   0.0714286  -0.3750000), wk =   0.0204082
        k(   32) = (   0.2142857   0.0714286  -0.1250000), wk =   0.0204082
        k(   33) = (   0.2142857   0.2142857   0.1250000), wk =   0.0204082
        k(   34) = (   0.2142857   0.2142857   0.3750000), wk =   0.0204082
        k(   35) = (   0.2142857   0.2142857  -0.3750000), wk =   0.0204082
        k(   36) = (   0.2142857   0.2142857  -0.1250000), wk =   0.0204082
        k(   37) = (   0.2142857   0.3571429   0.1250000), wk =   0.0204082
        k(   38) = (   0.2142857   0.3571429   0.3750000), wk =   0.0204082
        k(   39) = (   0.2142857   0.3571429  -0.3750000), wk =   0.0204082
        k(   40) = (   0.2142857   0.3571429  -0.1250000), wk =   0.0204082
        k(   41) = (   0.2142857  -0.5000000   0.1250000), wk =   0.0204082
        k(   42) = (   0.2142857  -0.5000000   0.3750000), wk =   0.0204082
        k(   43) = (   0.2142857  -0.5000000  -0.3750000), wk =   0.0204082
        k(   44) = (   0.2142857  -0.5000000  -0.1250000), wk =   0.0204082
        k(   45) = (   0.2142857  -0.3571429   0.1250000), wk =   0.0204082
        k(   46) = (   0.2142857  -0.3571429   0.3750000), wk =   0.0204082
        k(   47) = (   0.2142857  -0.3571429  -0.3750000), wk =   0.0204082
        k(   48) = (   0.2142857  -0.3571429  -0.1250000), wk =   0.0204082
        k(   49) = (   0.2142857  -0.2142857   0.1250000), wk =   0.0204082
        k(   50) = (   0.2142857  -0.2142857   0.3750000), wk =   0.0204082
        k(   51) = (   0.2142857  -0.2142857  -0.3750000), wk =   0.0204082
        k(   52) = (   0.2142857  -0.2142857  -0.1250000), wk =   0.0204082
        k(   53) = (   0.2142857  -0.0714286   0.1250000), wk =   0.0204082
        k(   54) = (   0.2142857  -0.0714286   0.3750000), wk =   0.0204082
        k(   55) = (   0.2142857  -0.0714286  -0.3750000), wk =   0.0204082
        k(   56) = (   0.2142857  -0.0714286  -0.1250000), wk =   0.0204082
        k(   57) = (   0.3571429   0.0714286   0.1250000), wk =   0.0204082
        k(   58) = (   0.3571429   0.0714286   0.3750000), wk =   0.0204082
        k(   59) = (   0.3571429   0.0714286  -0.3750000), wk =   0.0204082
        k(   60) = (   0.3571429   0.0714286  -0.1250000), wk =   0.0204082
[...]
        k(   84) = (   0.3571429  -0.0714286  -0.1250000), wk =   0.0204082
        k(   85) = (  -0.5000000   0.0714286   0.1250000), wk =   0.0204082
        k(   86) = (  -0.5000000   0.0714286   0.3750000), wk =   0.0204082
        k(   87) = (  -0.5000000   0.0714286  -0.3750000), wk =   0.0204082
        k(   88) = (  -0.5000000   0.0714286  -0.1250000), wk =   0.0204082
        k(   89) = (  -0.5000000   0.2142857   0.1250000), wk =   0.0204082
        k(   90) = (  -0.5000000   0.2142857   0.3750000), wk =   0.0204082
        k(   91) = (  -0.5000000   0.2142857  -0.3750000), wk =   0.0204082
        k(   92) = (  -0.5000000   0.2142857  -0.1250000), wk =   0.0204082
        k(   93) = (  -0.5000000   0.3571429   0.1250000), wk =   0.0204082
        k(   94) = (  -0.5000000   0.3571429   0.3750000), wk =   0.0204082
        k(   95) = (  -0.5000000   0.3571429  -0.3750000), wk =   0.0204082
        k(   96) = (  -0.5000000   0.3571429  -0.1250000), wk =   0.0204082
        k(   97) = (  -0.5000000  -0.5000000   0.1250000), wk =   0.0204082
        k(   98) = (  -0.5000000  -0.5000000   0.3750000), wk =   0.0204082

     Check: negative core charge=   -0.000003

     Initial potential from superposition of free atoms

     starting charge   35.99408, renormalised to   36.00000
     Starting wfcs are   26 randomized atomic wfcs

     Self-consistent Calculation

[...]

     total energy              =    -383.12864621 Ry
     estimated scf accuracy    <          1.6E-16 Ry

     iteration # 27     ecut=    60.00 Ry     beta= 0.70
     Davidson diagonalization with overlap
     ethr =  1.00E-13,  avg # of iterations =  1.0

     End of self-consistent calculation

[...]

          k = 0.3543 0.1227-0.0761 (  2491 PWs)   bands (ev):

[...]

          k =-0.4960-0.8591 0.2283 (  2462 PWs)   bands (ev):

    -5.5116  -5.4542  -4.0532  -4.0124  -3.9641  -3.8974  -3.8580  -3.8068
    -3.7705  -3.7608  -2.4898  -2.2789   2.7516   3.1930   6.8816   7.1655
     7.8015   7.8279

     occupation numbers
     1.0000   1.0000   1.0000   1.0000   1.0000   1.0000   1.0000   1.0000
     1.0000   1.0000   1.0000   1.0000   1.0000   1.0000   1.0000   1.0000
     1.0000   1.0000

     highest occupied level (ev):     9.2633

!    total energy              =    -383.12864621 Ry
     estimated scf accuracy    <          3.1E-17 Ry

     The total energy is the sum of the following terms:
     one-electron contribution =    -182.26776804 Ry
     hartree contribution      =     129.13587949 Ry
     xc contribution           =     -98.79354297 Ry
     ewald contribution        =    -231.20321469 Ry

     convergence has been achieved in  27 iterations

     Forces acting on atoms (cartesian axes, Ry/au):

     atom    1 type  1   force =    -0.00000650    0.00000375    0.00005936
     atom    2 type  1   force =     0.00000651   -0.00000376   -0.00007962
     atom    3 type  2   force =    -0.00000202    0.00000117    0.00001806
     atom    4 type  2   force =     0.00000202   -0.00000117    0.00000220
     The non-local contrib.  to forces
     atom    1 type  1   force =     0.00036220   -0.00020911    0.00043991
     atom    2 type  1   force =    -0.00036216    0.00020909    0.00059324
     atom    3 type  2   force =     0.00005660   -0.00003268    0.01369651
     atom    4 type  2   force =    -0.00005653    0.00003264    0.01348007
     The ionic contribution  to forces
     atom    1 type  1   force =     0.00104371   -0.00060253    0.15862370
     atom    2 type  1   force =    -0.00104299    0.00060213    0.15206740
     atom    3 type  2   force =     0.00118332   -0.00068315   -0.15666773
     atom    4 type  2   force =    -0.00118404    0.00068355   -0.15402337
     The local contribution  to forces
     atom    1 type  1   force =    -0.00140352    0.00081026   -0.15919144
     atom    2 type  1   force =     0.00140276   -0.00080984   -0.15293461
     atom    3 type  2   force =    -0.00124038    0.00071609    0.14320129
     atom    4 type  2   force =     0.00124102   -0.00071645    0.14075425
     The core correction contribution to forces
     atom    1 type  1   force =    -0.00000890    0.00000514    0.00018728
     atom    2 type  1   force =     0.00000889   -0.00000513    0.00019443
     atom    3 type  2   force =    -0.00000157    0.00000090   -0.00021191
     atom    4 type  2   force =     0.00000156   -0.00000090   -0.00020866
     The Hubbard contrib.    to forces
     atom    1 type  1   force =     0.00000000    0.00000000    0.00000000
     atom    2 type  1   force =     0.00000000    0.00000000    0.00000000
     atom    3 type  2   force =     0.00000000    0.00000000    0.00000000
     atom    4 type  2   force =     0.00000000    0.00000000    0.00000000
     The SCF correction term to forces
     atom    1 type  1   force =    -0.00000000    0.00000000    0.00000000
     atom    2 type  1   force =    -0.00000000    0.00000000   -0.00000000
     atom    3 type  2   force =     0.00000000   -0.00000000   -0.00000000
     atom    4 type  2   force =    -0.00000000   -0.00000000    0.00000000

     Total force =     0.000082     Total SCF correction =     0.000000

     Computing stress (Cartesian axis) and pressure

          total   stress  (Ry/bohr**3)                   (kbar)     P=        0.91
   0.00000597   0.00000000   0.00000000            0.88        0.00        0.00
   0.00000000   0.00000598  -0.00000000            0.00        0.88       -0.00
   0.00000000  -0.00000000   0.00000664            0.00       -0.00        0.98

     kinetic stress (kbar)  20339.65      0.42      0.00
                                0.42  20340.13     -0.00
                                0.00     -0.00  20354.17

     local   stress (kbar)   6375.68     -2.05      0.00
                               -2.05   6373.31     -0.00
                                0.00     -0.00   4642.48

     nonloc. stress (kbar)   -943.50      0.06     -0.00
                                0.06   -943.42      0.00
                               -0.00      0.00   -953.06

     hartree stress (kbar)  19739.68      0.56     -0.00
                                0.56  19740.33      0.00
                               -0.00      0.00  20529.74

     exc-cor stress (kbar)   9284.41      0.01     -0.00
                                0.01   9284.43      0.00
                               -0.00      0.00   9284.73

     corecor stress (kbar) -18668.64     -0.01      0.00
                               -0.01 -18668.65     -0.00
                                0.00     -0.00 -18668.05

     ewald   stress (kbar) -36126.41      1.01     -0.00
                                1.01 -36125.24      0.00
                               -0.00      0.00 -35189.03

     hubbard stress (kbar)      0.00      0.00      0.00
                                0.00      0.00      0.00
                                0.00      0.00      0.00

     DFT-D   stress (kbar)      0.00      0.00      0.00
                                0.00      0.00      0.00
                                0.00      0.00      0.00

     XDM     stress (kbar)      0.00      0.00      0.00
                                0.00      0.00      0.00
                                0.00      0.00      0.00

     dft-nl  stress (kbar)      0.00      0.00      0.00
                                0.00      0.00      0.00
                                0.00      0.00      0.00

     TS-vdW  stress (kbar)      0.00      0.00      0.00
                                0.00      0.00      0.00
                                0.00      0.00      0.00

     Writing output data file ./gan_wz/gan_wz.save/

     General routines

     Parallel routines

   This run was terminated on:  19:36:10   9Nov2022

   JOB DONE.